p cnf 5980 35229
487 3235 -271 0
-487 -3235 -271 0
-487 3235 271 0
487 -3235 271 0
488 3236 -272 0
-488 -3236 -272 0
-488 3236 272 0
488 -3236 272 0
491 3239 -273 0
-491 -3239 -273 0
-491 3239 273 0
491 -3239 273 0
492 3240 -274 0
-492 -3240 -274 0
-492 3240 274 0
492 -3240 274 0
495 3243 -275 0
-495 -3243 -275 0
-495 3243 275 0
495 -3243 275 0
496 3244 -276 0
-496 -3244 -276 0
-496 3244 276 0
496 -3244 276 0
499 3247 -277 0
-499 -3247 -277 0
-499 3247 277 0
499 -3247 277 0
500 3248 -278 0
-500 -3248 -278 0
-500 3248 278 0
500 -3248 278 0
503 3251 -279 0
-503 -3251 -279 0
-503 3251 279 0
503 -3251 279 0
504 3252 -280 0
-504 -3252 -280 0
-504 3252 280 0
504 -3252 280 0
505 3253 -281 0
-505 -3253 -281 0
-505 3253 281 0
505 -3253 281 0
506 3254 -282 0
-506 -3254 -282 0
-506 3254 282 0
506 -3254 282 0
507 3255 -283 0
-507 -3255 -283 0
-507 3255 283 0
507 -3255 283 0
508 3256 -284 0
-508 -3256 -284 0
-508 3256 284 0
508 -3256 284 0
509 3257 -285 0
-509 -3257 -285 0
-509 3257 285 0
509 -3257 285 0
510 3258 -286 0
-510 -3258 -286 0
-510 3258 286 0
510 -3258 286 0
513 3261 -287 0
-513 -3261 -287 0
-513 3261 287 0
513 -3261 287 0
514 3262 -288 0
-514 -3262 -288 0
-514 3262 288 0
514 -3262 288 0
517 3265 -289 0
-517 -3265 -289 0
-517 3265 289 0
517 -3265 289 0
518 3266 -290 0
-518 -3266 -290 0
-518 3266 290 0
518 -3266 290 0
521 3269 -291 0
-521 -3269 -291 0
-521 3269 291 0
521 -3269 291 0
522 3270 -292 0
-522 -3270 -292 0
-522 3270 292 0
522 -3270 292 0
525 3273 -293 0
-525 -3273 -293 0
-525 3273 293 0
525 -3273 293 0
526 3274 -294 0
-526 -3274 -294 0
-526 3274 294 0
526 -3274 294 0
529 3277 -295 0
-529 -3277 -295 0
-529 3277 295 0
529 -3277 295 0
530 3278 -296 0
-530 -3278 -296 0
-530 3278 296 0
530 -3278 296 0
533 3281 -297 0
-533 -3281 -297 0
-533 3281 297 0
533 -3281 297 0
534 3282 -298 0
-534 -3282 -298 0
-534 3282 298 0
534 -3282 298 0
537 3285 -299 0
-537 -3285 -299 0
-537 3285 299 0
537 -3285 299 0
538 3286 -300 0
-538 -3286 -300 0
-538 3286 300 0
538 -3286 300 0
541 3289 -301 0
-541 -3289 -301 0
-541 3289 301 0
541 -3289 301 0
542 3290 -302 0
-542 -3290 -302 0
-542 3290 302 0
542 -3290 302 0
545 3293 -303 0
-545 -3293 -303 0
-545 3293 303 0
545 -3293 303 0
546 3294 -304 0
-546 -3294 -304 0
-546 3294 304 0
546 -3294 304 0
549 3297 -305 0
-549 -3297 -305 0
-549 3297 305 0
549 -3297 305 0
550 3298 -306 0
-550 -3298 -306 0
-550 3298 306 0
550 -3298 306 0
553 3301 -307 0
-553 -3301 -307 0
-553 3301 307 0
553 -3301 307 0
554 3302 -308 0
-554 -3302 -308 0
-554 3302 308 0
554 -3302 308 0
557 3305 -309 0
-557 -3305 -309 0
-557 3305 309 0
557 -3305 309 0
558 3306 -310 0
-558 -3306 -310 0
-558 3306 310 0
558 -3306 310 0
559 3307 -311 0
-559 -3307 -311 0
-559 3307 311 0
559 -3307 311 0
560 3308 -312 0
-560 -3308 -312 0
-560 3308 312 0
560 -3308 312 0
561 3309 -313 0
-561 -3309 -313 0
-561 3309 313 0
561 -3309 313 0
562 3310 -314 0
-562 -3310 -314 0
-562 3310 314 0
562 -3310 314 0
565 3313 -315 0
-565 -3313 -315 0
-565 3313 315 0
565 -3313 315 0
566 3314 -316 0
-566 -3314 -316 0
-566 3314 316 0
566 -3314 316 0
569 3317 -317 0
-569 -3317 -317 0
-569 3317 317 0
569 -3317 317 0
570 3318 -318 0
-570 -3318 -318 0
-570 3318 318 0
570 -3318 318 0
573 3321 -319 0
-573 -3321 -319 0
-573 3321 319 0
573 -3321 319 0
574 3322 -320 0
-574 -3322 -320 0
-574 3322 320 0
574 -3322 320 0
577 3325 -321 0
-577 -3325 -321 0
-577 3325 321 0
577 -3325 321 0
578 3326 -322 0
-578 -3326 -322 0
-578 3326 322 0
578 -3326 322 0
581 3329 -323 0
-581 -3329 -323 0
-581 3329 323 0
581 -3329 323 0
582 3330 -324 0
-582 -3330 -324 0
-582 3330 324 0
582 -3330 324 0
585 3333 -325 0
-585 -3333 -325 0
-585 3333 325 0
585 -3333 325 0
586 3334 -326 0
-586 -3334 -326 0
-586 3334 326 0
586 -3334 326 0
589 3337 -327 0
-589 -3337 -327 0
-589 3337 327 0
589 -3337 327 0
590 3338 -328 0
-590 -3338 -328 0
-590 3338 328 0
590 -3338 328 0
593 3341 -329 0
-593 -3341 -329 0
-593 3341 329 0
593 -3341 329 0
594 3342 -330 0
-594 -3342 -330 0
-594 3342 330 0
594 -3342 330 0
597 3345 -331 0
-597 -3345 -331 0
-597 3345 331 0
597 -3345 331 0
598 3346 -332 0
-598 -3346 -332 0
-598 3346 332 0
598 -3346 332 0
599 3347 -333 0
-599 -3347 -333 0
-599 3347 333 0
599 -3347 333 0
600 3348 -334 0
-600 -3348 -334 0
-600 3348 334 0
600 -3348 334 0
605 3353 -335 0
-605 -3353 -335 0
-605 3353 335 0
605 -3353 335 0
606 3354 -336 0
-606 -3354 -336 0
-606 3354 336 0
606 -3354 336 0
609 3357 -337 0
-609 -3357 -337 0
-609 3357 337 0
609 -3357 337 0
610 3358 -338 0
-610 -3358 -338 0
-610 3358 338 0
610 -3358 338 0
613 3361 -339 0
-613 -3361 -339 0
-613 3361 339 0
613 -3361 339 0
614 3362 -340 0
-614 -3362 -340 0
-614 3362 340 0
614 -3362 340 0
617 3365 -341 0
-617 -3365 -341 0
-617 3365 341 0
617 -3365 341 0
618 3366 -342 0
-618 -3366 -342 0
-618 3366 342 0
618 -3366 342 0
621 3369 -343 0
-621 -3369 -343 0
-621 3369 343 0
621 -3369 343 0
622 3370 -344 0
-622 -3370 -344 0
-622 3370 344 0
622 -3370 344 0
625 3373 -345 0
-625 -3373 -345 0
-625 3373 345 0
625 -3373 345 0
626 3374 -346 0
-626 -3374 -346 0
-626 3374 346 0
626 -3374 346 0
631 3379 -347 0
-631 -3379 -347 0
-631 3379 347 0
631 -3379 347 0
632 3380 -348 0
-632 -3380 -348 0
-632 3380 348 0
632 -3380 348 0
635 3383 -349 0
-635 -3383 -349 0
-635 3383 349 0
635 -3383 349 0
636 3384 -350 0
-636 -3384 -350 0
-636 3384 350 0
636 -3384 350 0
639 3387 -351 0
-639 -3387 -351 0
-639 3387 351 0
639 -3387 351 0
640 3388 -352 0
-640 -3388 -352 0
-640 3388 352 0
640 -3388 352 0
643 3391 -353 0
-643 -3391 -353 0
-643 3391 353 0
643 -3391 353 0
644 3392 -354 0
-644 -3392 -354 0
-644 3392 354 0
644 -3392 354 0
647 3395 -355 0
-647 -3395 -355 0
-647 3395 355 0
647 -3395 355 0
648 3396 -356 0
-648 -3396 -356 0
-648 3396 356 0
648 -3396 356 0
649 3397 -357 0
-649 -3397 -357 0
-649 3397 357 0
649 -3397 357 0
650 3398 -358 0
-650 -3398 -358 0
-650 3398 358 0
650 -3398 358 0
653 3401 -359 0
-653 -3401 -359 0
-653 3401 359 0
653 -3401 359 0
654 3402 -360 0
-654 -3402 -360 0
-654 3402 360 0
654 -3402 360 0
657 3405 -361 0
-657 -3405 -361 0
-657 3405 361 0
657 -3405 361 0
658 3406 -362 0
-658 -3406 -362 0
-658 3406 362 0
658 -3406 362 0
661 3409 -363 0
-661 -3409 -363 0
-661 3409 363 0
661 -3409 363 0
662 3410 -364 0
-662 -3410 -364 0
-662 3410 364 0
662 -3410 364 0
665 3413 -365 0
-665 -3413 -365 0
-665 3413 365 0
665 -3413 365 0
666 3414 -366 0
-666 -3414 -366 0
-666 3414 366 0
666 -3414 366 0
669 3417 -367 0
-669 -3417 -367 0
-669 3417 367 0
669 -3417 367 0
670 3418 -368 0
-670 -3418 -368 0
-670 3418 368 0
670 -3418 368 0
675 3423 -369 0
-675 -3423 -369 0
-675 3423 369 0
675 -3423 369 0
676 3424 -370 0
-676 -3424 -370 0
-676 3424 370 0
676 -3424 370 0
677 3425 -371 0
-677 -3425 -371 0
-677 3425 371 0
677 -3425 371 0
678 3426 -372 0
-678 -3426 -372 0
-678 3426 372 0
678 -3426 372 0
681 3429 -373 0
-681 -3429 -373 0
-681 3429 373 0
681 -3429 373 0
682 3430 -374 0
-682 -3430 -374 0
-682 3430 374 0
682 -3430 374 0
685 3433 -375 0
-685 -3433 -375 0
-685 3433 375 0
685 -3433 375 0
686 3434 -376 0
-686 -3434 -376 0
-686 3434 376 0
686 -3434 376 0
689 3437 -377 0
-689 -3437 -377 0
-689 3437 377 0
689 -3437 377 0
690 3438 -378 0
-690 -3438 -378 0
-690 3438 378 0
690 -3438 378 0
693 3441 -379 0
-693 -3441 -379 0
-693 3441 379 0
693 -3441 379 0
694 3442 -380 0
-694 -3442 -380 0
-694 3442 380 0
694 -3442 380 0
695 3443 -381 0
-695 -3443 -381 0
-695 3443 381 0
695 -3443 381 0
696 3444 -382 0
-696 -3444 -382 0
-696 3444 382 0
696 -3444 382 0
699 3447 -383 0
-699 -3447 -383 0
-699 3447 383 0
699 -3447 383 0
700 3448 -384 0
-700 -3448 -384 0
-700 3448 384 0
700 -3448 384 0
701 3449 -385 0
-701 -3449 -385 0
-701 3449 385 0
701 -3449 385 0
702 3450 -386 0
-702 -3450 -386 0
-702 3450 386 0
702 -3450 386 0
705 3453 -387 0
-705 -3453 -387 0
-705 3453 387 0
705 -3453 387 0
706 3454 -388 0
-706 -3454 -388 0
-706 3454 388 0
706 -3454 388 0
709 3457 -389 0
-709 -3457 -389 0
-709 3457 389 0
709 -3457 389 0
710 3458 -390 0
-710 -3458 -390 0
-710 3458 390 0
710 -3458 390 0
713 3461 -391 0
-713 -3461 -391 0
-713 3461 391 0
713 -3461 391 0
714 3462 -392 0
-714 -3462 -392 0
-714 3462 392 0
714 -3462 392 0
717 3465 -393 0
-717 -3465 -393 0
-717 3465 393 0
717 -3465 393 0
718 3466 -394 0
-718 -3466 -394 0
-718 3466 394 0
718 -3466 394 0
721 3469 -395 0
-721 -3469 -395 0
-721 3469 395 0
721 -3469 395 0
722 3470 -396 0
-722 -3470 -396 0
-722 3470 396 0
722 -3470 396 0
725 3473 -397 0
-725 -3473 -397 0
-725 3473 397 0
725 -3473 397 0
726 3474 -398 0
-726 -3474 -398 0
-726 3474 398 0
726 -3474 398 0
729 3477 -399 0
-729 -3477 -399 0
-729 3477 399 0
729 -3477 399 0
730 3478 -400 0
-730 -3478 -400 0
-730 3478 400 0
730 -3478 400 0
733 3481 -401 0
-733 -3481 -401 0
-733 3481 401 0
733 -3481 401 0
734 3482 -402 0
-734 -3482 -402 0
-734 3482 402 0
734 -3482 402 0
737 3485 -403 0
-737 -3485 -403 0
-737 3485 403 0
737 -3485 403 0
738 3486 -404 0
-738 -3486 -404 0
-738 3486 404 0
738 -3486 404 0
743 3491 -405 0
-743 -3491 -405 0
-743 3491 405 0
743 -3491 405 0
744 3492 -406 0
-744 -3492 -406 0
-744 3492 406 0
744 -3492 406 0
745 3493 -407 0
-745 -3493 -407 0
-745 3493 407 0
745 -3493 407 0
746 3494 -408 0
-746 -3494 -408 0
-746 3494 408 0
746 -3494 408 0
747 3495 -409 0
-747 -3495 -409 0
-747 3495 409 0
747 -3495 409 0
748 3496 -410 0
-748 -3496 -410 0
-748 3496 410 0
748 -3496 410 0
749 3497 -411 0
-749 -3497 -411 0
-749 3497 411 0
749 -3497 411 0
750 3498 -412 0
-750 -3498 -412 0
-750 3498 412 0
750 -3498 412 0
751 3499 -413 0
-751 -3499 -413 0
-751 3499 413 0
751 -3499 413 0
752 3500 -414 0
-752 -3500 -414 0
-752 3500 414 0
752 -3500 414 0
753 3501 -415 0
-753 -3501 -415 0
-753 3501 415 0
753 -3501 415 0
754 3502 -416 0
-754 -3502 -416 0
-754 3502 416 0
754 -3502 416 0
755 3503 -417 0
-755 -3503 -417 0
-755 3503 417 0
755 -3503 417 0
756 3504 -418 0
-756 -3504 -418 0
-756 3504 418 0
756 -3504 418 0
757 3505 -419 0
-757 -3505 -419 0
-757 3505 419 0
757 -3505 419 0
758 3506 -420 0
-758 -3506 -420 0
-758 3506 420 0
758 -3506 420 0
761 3509 -421 0
-761 -3509 -421 0
-761 3509 421 0
761 -3509 421 0
762 3510 -422 0
-762 -3510 -422 0
-762 3510 422 0
762 -3510 422 0
765 3513 -423 0
-765 -3513 -423 0
-765 3513 423 0
765 -3513 423 0
766 3514 -424 0
-766 -3514 -424 0
-766 3514 424 0
766 -3514 424 0
769 3517 -425 0
-769 -3517 -425 0
-769 3517 425 0
769 -3517 425 0
770 3518 -426 0
-770 -3518 -426 0
-770 3518 426 0
770 -3518 426 0
773 3521 -427 0
-773 -3521 -427 0
-773 3521 427 0
773 -3521 427 0
774 3522 -428 0
-774 -3522 -428 0
-774 3522 428 0
774 -3522 428 0
777 3525 -429 0
-777 -3525 -429 0
-777 3525 429 0
777 -3525 429 0
778 3526 -430 0
-778 -3526 -430 0
-778 3526 430 0
778 -3526 430 0
781 3529 -431 0
-781 -3529 -431 0
-781 3529 431 0
781 -3529 431 0
782 3530 -432 0
-782 -3530 -432 0
-782 3530 432 0
782 -3530 432 0
785 3533 -433 0
-785 -3533 -433 0
-785 3533 433 0
785 -3533 433 0
786 3534 -434 0
-786 -3534 -434 0
-786 3534 434 0
786 -3534 434 0
789 3537 -435 0
-789 -3537 -435 0
-789 3537 435 0
789 -3537 435 0
790 3538 -436 0
-790 -3538 -436 0
-790 3538 436 0
790 -3538 436 0
793 3541 -437 0
-793 -3541 -437 0
-793 3541 437 0
793 -3541 437 0
794 3542 -438 0
-794 -3542 -438 0
-794 3542 438 0
794 -3542 438 0
797 3545 -439 0
-797 -3545 -439 0
-797 3545 439 0
797 -3545 439 0
798 3546 -440 0
-798 -3546 -440 0
-798 3546 440 0
798 -3546 440 0
803 3551 -441 0
-803 -3551 -441 0
-803 3551 441 0
803 -3551 441 0
804 3552 -442 0
-804 -3552 -442 0
-804 3552 442 0
804 -3552 442 0
807 3555 -443 0
-807 -3555 -443 0
-807 3555 443 0
807 -3555 443 0
808 3556 -444 0
-808 -3556 -444 0
-808 3556 444 0
808 -3556 444 0
811 3559 -445 0
-811 -3559 -445 0
-811 3559 445 0
811 -3559 445 0
812 3560 -446 0
-812 -3560 -446 0
-812 3560 446 0
812 -3560 446 0
815 3563 -447 0
-815 -3563 -447 0
-815 3563 447 0
815 -3563 447 0
816 3564 -448 0
-816 -3564 -448 0
-816 3564 448 0
816 -3564 448 0
819 3567 -449 0
-819 -3567 -449 0
-819 3567 449 0
819 -3567 449 0
820 3568 -450 0
-820 -3568 -450 0
-820 3568 450 0
820 -3568 450 0
823 3571 -451 0
-823 -3571 -451 0
-823 3571 451 0
823 -3571 451 0
824 3572 -452 0
-824 -3572 -452 0
-824 3572 452 0
824 -3572 452 0
825 3573 -453 0
-825 -3573 -453 0
-825 3573 453 0
825 -3573 453 0
826 3574 -454 0
-826 -3574 -454 0
-826 3574 454 0
826 -3574 454 0
827 3575 -455 0
-827 -3575 -455 0
-827 3575 455 0
827 -3575 455 0
828 3576 -456 0
-828 -3576 -456 0
-828 3576 456 0
828 -3576 456 0
829 3577 -457 0
-829 -3577 -457 0
-829 3577 457 0
829 -3577 457 0
830 3578 -458 0
-830 -3578 -458 0
-830 3578 458 0
830 -3578 458 0
831 3579 -459 0
-831 -3579 -459 0
-831 3579 459 0
831 -3579 459 0
832 3580 -460 0
-832 -3580 -460 0
-832 3580 460 0
832 -3580 460 0
833 3581 -461 0
-833 -3581 -461 0
-833 3581 461 0
833 -3581 461 0
834 3582 -462 0
-834 -3582 -462 0
-834 3582 462 0
834 -3582 462 0
837 3585 -463 0
-837 -3585 -463 0
-837 3585 463 0
837 -3585 463 0
838 3586 -464 0
-838 -3586 -464 0
-838 3586 464 0
838 -3586 464 0
839 3587 -465 0
-839 -3587 -465 0
-839 3587 465 0
839 -3587 465 0
840 3588 -466 0
-840 -3588 -466 0
-840 3588 466 0
840 -3588 466 0
843 3591 -467 0
-843 -3591 -467 0
-843 3591 467 0
843 -3591 467 0
844 3592 -468 0
-844 -3592 -468 0
-844 3592 468 0
844 -3592 468 0
847 3595 -469 0
-847 -3595 -469 0
-847 3595 469 0
847 -3595 469 0
848 3596 -470 0
-848 -3596 -470 0
-848 3596 470 0
848 -3596 470 0
853 3601 -471 0
-853 -3601 -471 0
-853 3601 471 0
853 -3601 471 0
854 3602 -472 0
-854 -3602 -472 0
-854 3602 472 0
854 -3602 472 0
857 3605 -473 0
-857 -3605 -473 0
-857 3605 473 0
857 -3605 473 0
858 3606 -474 0
-858 -3606 -474 0
-858 3606 474 0
858 -3606 474 0
859 3607 -475 0
-859 -3607 -475 0
-859 3607 475 0
859 -3607 475 0
860 3608 -476 0
-860 -3608 -476 0
-860 3608 476 0
860 -3608 476 0
861 3609 -477 0
-861 -3609 -477 0
-861 3609 477 0
861 -3609 477 0
862 3610 -478 0
-862 -3610 -478 0
-862 3610 478 0
862 -3610 478 0
863 3611 -479 0
-863 -3611 -479 0
-863 3611 479 0
863 -3611 479 0
864 3612 -480 0
-864 -3612 -480 0
-864 3612 480 0
864 -3612 480 0
865 3613 -481 0
-865 -3613 -481 0
-865 3613 481 0
865 -3613 481 0
866 3614 -482 0
-866 -3614 -482 0
-866 3614 482 0
866 -3614 482 0
869 3617 -483 0
-869 -3617 -483 0
-869 3617 483 0
869 -3617 483 0
870 3618 -484 0
-870 -3618 -484 0
-870 3618 484 0
870 -3618 484 0
-871 872 873 -874 -485 0
-871 -872 -873 -874 -485 0
-872 873 485 0
872 -873 485 0
871 485 0
874 485 0
871 -872 873 874 -486 0
-871 872 873 -874 -486 0
-871 -872 486 0
-871 874 486 0
871 872 486 0
871 -874 486 0
-873 486 0
485 486 -487 0
-485 486 -487 0
-486 487 0
-485 486 -488 0
-485 -486 -488 0
485 488 0
-875 876 877 -878 -489 0
-875 -876 -877 -878 -489 0
-876 877 489 0
876 -877 489 0
875 489 0
878 489 0
875 -876 877 878 -490 0
-875 876 877 -878 -490 0
-875 -876 490 0
-875 878 490 0
875 876 490 0
875 -878 490 0
-877 490 0
489 490 -491 0
-489 490 -491 0
-490 491 0
-489 490 -492 0
-489 -490 -492 0
489 492 0
-199 200 787 -788 -493 0
-199 -200 -787 -788 -493 0
-200 787 493 0
200 -787 493 0
199 493 0
788 493 0
199 -200 787 788 -494 0
-199 200 787 -788 -494 0
-199 -200 494 0
-199 788 494 0
199 200 494 0
199 -788 494 0
-787 494 0
493 494 -495 0
-493 494 -495 0
-494 495 0
-493 494 -496 0
-493 -494 -496 0
493 496 0
-787 788 879 -880 -497 0
-787 -788 -879 -880 -497 0
-788 879 497 0
788 -879 497 0
787 497 0
880 497 0
787 -788 879 880 -498 0
-787 788 879 -880 -498 0
-787 -788 498 0
-787 880 498 0
787 788 498 0
787 -880 498 0
-879 498 0
497 498 -499 0
-497 498 -499 0
-498 499 0
-497 498 -500 0
-497 -498 -500 0
497 500 0
-881 882 883 -884 -501 0
-881 -882 -883 -884 -501 0
-882 883 501 0
882 -883 501 0
881 501 0
884 501 0
881 -882 883 884 -502 0
-881 882 883 -884 -502 0
-881 -882 502 0
-881 884 502 0
881 882 502 0
881 -884 502 0
-883 502 0
501 502 -503 0
-501 502 -503 0
-502 503 0
-501 502 -504 0
-501 -502 -504 0
501 504 0
505 0
506 0
237 238 -507 0
-237 238 -507 0
-238 507 0
-237 238 -508 0
-237 -238 -508 0
237 508 0
509 0
510 0
-885 886 887 -888 -511 0
-885 -886 -887 -888 -511 0
-886 887 511 0
886 -887 511 0
885 511 0
888 511 0
885 -886 887 888 -512 0
-885 886 887 -888 -512 0
-885 -886 512 0
-885 888 512 0
885 886 512 0
885 -888 512 0
-887 512 0
511 512 -513 0
-511 512 -513 0
-512 513 0
-511 512 -514 0
-511 -512 -514 0
511 514 0
-153 154 889 -890 -515 0
-153 -154 -889 -890 -515 0
-154 889 515 0
154 -889 515 0
153 515 0
890 515 0
153 -154 889 890 -516 0
-153 154 889 -890 -516 0
-153 -154 516 0
-153 890 516 0
153 154 516 0
153 -890 516 0
-889 516 0
-149 150 515 -516 -517 0
-149 -150 -515 -516 -517 0
-150 515 517 0
150 -515 517 0
149 517 0
516 517 0
149 -150 515 516 -518 0
-149 150 515 -516 -518 0
-149 -150 518 0
-149 516 518 0
149 150 518 0
149 -516 518 0
-515 518 0
-891 892 893 -894 -519 0
-891 -892 -893 -894 -519 0
-892 893 519 0
892 -893 519 0
891 519 0
894 519 0
891 -892 893 894 -520 0
-891 892 893 -894 -520 0
-891 -892 520 0
-891 894 520 0
891 892 520 0
891 -894 520 0
-893 520 0
519 520 -521 0
-519 520 -521 0
-520 521 0
-519 520 -522 0
-519 -520 -522 0
519 522 0
-895 896 897 -898 -523 0
-895 -896 -897 -898 -523 0
-896 897 523 0
896 -897 523 0
895 523 0
898 523 0
895 -896 897 898 -524 0
-895 896 897 -898 -524 0
-895 -896 524 0
-895 898 524 0
895 896 524 0
895 -898 524 0
-897 524 0
523 524 -525 0
-523 524 -525 0
-524 525 0
-523 524 -526 0
-523 -524 -526 0
523 526 0
-899 900 901 -902 -527 0
-899 -900 -901 -902 -527 0
-900 901 527 0
900 -901 527 0
899 527 0
902 527 0
899 -900 901 902 -528 0
-899 900 901 -902 -528 0
-899 -900 528 0
-899 902 528 0
899 900 528 0
899 -902 528 0
-901 528 0
527 528 -529 0
-527 528 -529 0
-528 529 0
-527 528 -530 0
-527 -528 -530 0
527 530 0
-903 904 905 -906 -531 0
-903 -904 -905 -906 -531 0
-904 905 531 0
904 -905 531 0
903 531 0
906 531 0
903 -904 905 906 -532 0
-903 904 905 -906 -532 0
-903 -904 532 0
-903 906 532 0
903 904 532 0
903 -906 532 0
-905 532 0
531 532 -533 0
-531 532 -533 0
-532 533 0
-531 532 -534 0
-531 -532 -534 0
531 534 0
-907 908 909 -910 -535 0
-907 -908 -909 -910 -535 0
-908 909 535 0
908 -909 535 0
907 535 0
910 535 0
907 -908 909 910 -536 0
-907 908 909 -910 -536 0
-907 -908 536 0
-907 910 536 0
907 908 536 0
907 -910 536 0
-909 536 0
535 536 -537 0
-535 536 -537 0
-536 537 0
-535 536 -538 0
-535 -536 -538 0
535 538 0
-911 912 913 -914 -539 0
-911 -912 -913 -914 -539 0
-912 913 539 0
912 -913 539 0
911 539 0
914 539 0
911 -912 913 914 -540 0
-911 912 913 -914 -540 0
-911 -912 540 0
-911 914 540 0
911 912 540 0
911 -914 540 0
-913 540 0
539 540 -541 0
-539 540 -541 0
-540 541 0
-539 540 -542 0
-539 -540 -542 0
539 542 0
-915 916 917 -918 -543 0
-915 -916 -917 -918 -543 0
-916 917 543 0
916 -917 543 0
915 543 0
918 543 0
915 -916 917 918 -544 0
-915 916 917 -918 -544 0
-915 -916 544 0
-915 918 544 0
915 916 544 0
915 -918 544 0
-917 544 0
543 544 -545 0
-543 544 -545 0
-544 545 0
-543 544 -546 0
-543 -544 -546 0
543 546 0
-919 920 921 -922 -547 0
-919 -920 -921 -922 -547 0
-920 921 547 0
920 -921 547 0
919 547 0
922 547 0
919 -920 921 922 -548 0
-919 920 921 -922 -548 0
-919 -920 548 0
-919 922 548 0
919 920 548 0
919 -922 548 0
-921 548 0
547 548 -549 0
-547 548 -549 0
-548 549 0
-547 548 -550 0
-547 -548 -550 0
547 550 0
-923 924 925 -926 -551 0
-923 -924 -925 -926 -551 0
-924 925 551 0
924 -925 551 0
923 551 0
926 551 0
923 -924 925 926 -552 0
-923 924 925 -926 -552 0
-923 -924 552 0
-923 926 552 0
923 924 552 0
923 -926 552 0
-925 552 0
551 552 -553 0
-551 552 -553 0
-552 553 0
-551 552 -554 0
-551 -552 -554 0
551 554 0
-1 2 927 -928 -555 0
-1 -2 -927 -928 -555 0
-2 927 555 0
2 -927 555 0
1 555 0
928 555 0
1 -2 927 928 -556 0
-1 2 927 -928 -556 0
-1 -2 556 0
-1 928 556 0
1 2 556 0
1 -928 556 0
-927 556 0
555 556 -557 0
-555 556 -557 0
-556 557 0
-555 556 -558 0
-555 -556 -558 0
555 558 0
-95 96 263 -264 -559 0
-95 -96 -263 -264 -559 0
-96 263 559 0
96 -263 559 0
95 559 0
264 559 0
95 -96 263 264 -560 0
-95 96 263 -264 -560 0
-95 -96 560 0
-95 264 560 0
95 96 560 0
95 -264 560 0
-263 560 0
561 0
562 0
-929 930 931 -932 -563 0
-929 -930 -931 -932 -563 0
-930 931 563 0
930 -931 563 0
929 563 0
932 563 0
929 -930 931 932 -564 0
-929 930 931 -932 -564 0
-929 -930 564 0
-929 932 564 0
929 930 564 0
929 -932 564 0
-931 564 0
563 564 -565 0
-563 564 -565 0
-564 565 0
-563 564 -566 0
-563 -564 -566 0
563 566 0
-933 934 935 -936 -567 0
-933 -934 -935 -936 -567 0
-934 935 567 0
934 -935 567 0
933 567 0
936 567 0
933 -934 935 936 -568 0
-933 934 935 -936 -568 0
-933 -934 568 0
-933 936 568 0
933 934 568 0
933 -936 568 0
-935 568 0
567 568 -569 0
-567 568 -569 0
-568 569 0
-567 568 -570 0
-567 -568 -570 0
567 570 0
-937 938 939 -940 -571 0
-937 -938 -939 -940 -571 0
-938 939 571 0
938 -939 571 0
937 571 0
940 571 0
937 -938 939 940 -572 0
-937 938 939 -940 -572 0
-937 -938 572 0
-937 940 572 0
937 938 572 0
937 -940 572 0
-939 572 0
571 572 -573 0
-571 572 -573 0
-572 573 0
-571 572 -574 0
-571 -572 -574 0
571 574 0
-941 942 943 -944 -575 0
-941 -942 -943 -944 -575 0
-942 943 575 0
942 -943 575 0
941 575 0
944 575 0
941 -942 943 944 -576 0
-941 942 943 -944 -576 0
-941 -942 576 0
-941 944 576 0
941 942 576 0
941 -944 576 0
-943 576 0
575 576 -577 0
-575 576 -577 0
-576 577 0
-575 576 -578 0
-575 -576 -578 0
575 578 0
-945 946 947 -948 -579 0
-945 -946 -947 -948 -579 0
-946 947 579 0
946 -947 579 0
945 579 0
948 579 0
945 -946 947 948 -580 0
-945 946 947 -948 -580 0
-945 -946 580 0
-945 948 580 0
945 946 580 0
945 -948 580 0
-947 580 0
579 580 -581 0
-579 580 -581 0
-580 581 0
-579 580 -582 0
-579 -580 -582 0
579 582 0
-949 950 951 -952 -583 0
-949 -950 -951 -952 -583 0
-950 951 583 0
950 -951 583 0
949 583 0
952 583 0
949 -950 951 952 -584 0
-949 950 951 -952 -584 0
-949 -950 584 0
-949 952 584 0
949 950 584 0
949 -952 584 0
-951 584 0
583 584 -585 0
-583 584 -585 0
-584 585 0
-583 584 -586 0
-583 -584 -586 0
583 586 0
-953 954 955 -956 -587 0
-953 -954 -955 -956 -587 0
-954 955 587 0
954 -955 587 0
953 587 0
956 587 0
953 -954 955 956 -588 0
-953 954 955 -956 -588 0
-953 -954 588 0
-953 956 588 0
953 954 588 0
953 -956 588 0
-955 588 0
587 588 -589 0
-587 588 -589 0
-588 589 0
-587 588 -590 0
-587 -588 -590 0
587 590 0
-957 958 959 -960 -591 0
-957 -958 -959 -960 -591 0
-958 959 591 0
958 -959 591 0
957 591 0
960 591 0
957 -958 959 960 -592 0
-957 958 959 -960 -592 0
-957 -958 592 0
-957 960 592 0
957 958 592 0
957 -960 592 0
-959 592 0
591 592 -593 0
-591 592 -593 0
-592 593 0
-591 592 -594 0
-591 -592 -594 0
591 594 0
-961 962 963 -964 -595 0
-961 -962 -963 -964 -595 0
-962 963 595 0
962 -963 595 0
961 595 0
964 595 0
961 -962 963 964 -596 0
-961 962 963 -964 -596 0
-961 -962 596 0
-961 964 596 0
961 962 596 0
961 -964 596 0
-963 596 0
595 596 -597 0
-595 596 -597 0
-596 597 0
-595 596 -598 0
-595 -596 -598 0
595 598 0
599 0
600 0
-27 28 109 -110 -601 0
-27 -28 -109 -110 -601 0
-28 109 601 0
28 -109 601 0
27 601 0
110 601 0
27 -28 109 110 -602 0
-27 28 109 -110 -602 0
-27 -28 602 0
-27 110 602 0
27 28 602 0
27 -110 602 0
-109 602 0
-111 112 113 -114 -603 0
-111 -112 -113 -114 -603 0
-112 113 603 0
112 -113 603 0
111 603 0
114 603 0
111 -112 113 114 -604 0
-111 112 113 -114 -604 0
-111 -112 604 0
-111 114 604 0
111 112 604 0
111 -114 604 0
-113 604 0
-601 602 603 -604 -605 0
-601 -602 -603 -604 -605 0
-602 603 605 0
602 -603 605 0
601 605 0
604 605 0
601 -602 603 604 -606 0
-601 602 603 -604 -606 0
-601 -602 606 0
-601 604 606 0
601 602 606 0
601 -604 606 0
-603 606 0
-965 966 967 -968 -607 0
-965 -966 -967 -968 -607 0
-966 967 607 0
966 -967 607 0
965 607 0
968 607 0
965 -966 967 968 -608 0
-965 966 967 -968 -608 0
-965 -966 608 0
-965 968 608 0
965 966 608 0
965 -968 608 0
-967 608 0
607 608 -609 0
-607 608 -609 0
-608 609 0
-607 608 -610 0
-607 -608 -610 0
607 610 0
-1 2 969 -970 -611 0
-1 -2 -969 -970 -611 0
-2 969 611 0
2 -969 611 0
1 611 0
970 611 0
1 -2 969 970 -612 0
-1 2 969 -970 -612 0
-1 -2 612 0
-1 970 612 0
1 2 612 0
1 -970 612 0
-969 612 0
611 612 -613 0
-611 612 -613 0
-612 613 0
-611 612 -614 0
-611 -612 -614 0
611 614 0
-971 972 973 -974 -615 0
-971 -972 -973 -974 -615 0
-972 973 615 0
972 -973 615 0
971 615 0
974 615 0
971 -972 973 974 -616 0
-971 972 973 -974 -616 0
-971 -972 616 0
-971 974 616 0
971 972 616 0
971 -974 616 0
-973 616 0
615 616 -617 0
-615 616 -617 0
-616 617 0
-615 616 -618 0
-615 -616 -618 0
615 618 0
-975 976 977 -978 -619 0
-975 -976 -977 -978 -619 0
-976 977 619 0
976 -977 619 0
975 619 0
978 619 0
975 -976 977 978 -620 0
-975 976 977 -978 -620 0
-975 -976 620 0
-975 978 620 0
975 976 620 0
975 -978 620 0
-977 620 0
619 620 -621 0
-619 620 -621 0
-620 621 0
-619 620 -622 0
-619 -620 -622 0
619 622 0
-979 980 981 -982 -623 0
-979 -980 -981 -982 -623 0
-980 981 623 0
980 -981 623 0
979 623 0
982 623 0
979 -980 981 982 -624 0
-979 980 981 -982 -624 0
-979 -980 624 0
-979 982 624 0
979 980 624 0
979 -982 624 0
-981 624 0
623 624 -625 0
-623 624 -625 0
-624 625 0
-623 624 -626 0
-623 -624 -626 0
623 626 0
-983 984 985 -986 -627 0
-983 -984 -985 -986 -627 0
-984 985 627 0
984 -985 627 0
983 627 0
986 627 0
983 -984 985 986 -628 0
-983 984 985 -986 -628 0
-983 -984 628 0
-983 986 628 0
983 984 628 0
983 -986 628 0
-985 628 0
-987 988 989 -990 -629 0
-987 -988 -989 -990 -629 0
-988 989 629 0
988 -989 629 0
987 629 0
990 629 0
987 -988 989 990 -630 0
-987 988 989 -990 -630 0
-987 -988 630 0
-987 990 630 0
987 988 630 0
987 -990 630 0
-989 630 0
-627 628 629 -630 -631 0
-627 -628 -629 -630 -631 0
-628 629 631 0
628 -629 631 0
627 631 0
630 631 0
627 -628 629 630 -632 0
-627 628 629 -630 -632 0
-627 -628 632 0
-627 630 632 0
627 628 632 0
627 -630 632 0
-629 632 0
-991 992 993 -994 -633 0
-991 -992 -993 -994 -633 0
-992 993 633 0
992 -993 633 0
991 633 0
994 633 0
991 -992 993 994 -634 0
-991 992 993 -994 -634 0
-991 -992 634 0
-991 994 634 0
991 992 634 0
991 -994 634 0
-993 634 0
633 634 -635 0
-633 634 -635 0
-634 635 0
-633 634 -636 0
-633 -634 -636 0
633 636 0
-995 996 997 -998 -637 0
-995 -996 -997 -998 -637 0
-996 997 637 0
996 -997 637 0
995 637 0
998 637 0
995 -996 997 998 -638 0
-995 996 997 -998 -638 0
-995 -996 638 0
-995 998 638 0
995 996 638 0
995 -998 638 0
-997 638 0
637 638 -639 0
-637 638 -639 0
-638 639 0
-637 638 -640 0
-637 -638 -640 0
637 640 0
-999 1000 1001 -1002 -641 0
-999 -1000 -1001 -1002 -641 0
-1000 1001 641 0
1000 -1001 641 0
999 641 0
1002 641 0
999 -1000 1001 1002 -642 0
-999 1000 1001 -1002 -642 0
-999 -1000 642 0
-999 1002 642 0
999 1000 642 0
999 -1002 642 0
-1001 642 0
641 642 -643 0
-641 642 -643 0
-642 643 0
-641 642 -644 0
-641 -642 -644 0
641 644 0
-1003 1004 1005 -1006 -645 0
-1003 -1004 -1005 -1006 -645 0
-1004 1005 645 0
1004 -1005 645 0
1003 645 0
1006 645 0
1003 -1004 1005 1006 -646 0
-1003 1004 1005 -1006 -646 0
-1003 -1004 646 0
-1003 1006 646 0
1003 1004 646 0
1003 -1006 646 0
-1005 646 0
645 646 -647 0
-645 646 -647 0
-646 647 0
-645 646 -648 0
-645 -646 -648 0
645 648 0
-235 236 627 -628 -649 0
-235 -236 -627 -628 -649 0
-236 627 649 0
236 -627 649 0
235 649 0
628 649 0
235 -236 627 628 -650 0
-235 236 627 -628 -650 0
-235 -236 650 0
-235 628 650 0
235 236 650 0
235 -628 650 0
-627 650 0
-1007 1008 1009 -1010 -651 0
-1007 -1008 -1009 -1010 -651 0
-1008 1009 651 0
1008 -1009 651 0
1007 651 0
1010 651 0
1007 -1008 1009 1010 -652 0
-1007 1008 1009 -1010 -652 0
-1007 -1008 652 0
-1007 1010 652 0
1007 1008 652 0
1007 -1010 652 0
-1009 652 0
651 652 -653 0
-651 652 -653 0
-652 653 0
-651 652 -654 0
-651 -652 -654 0
651 654 0
-1011 1012 1013 -1014 -655 0
-1011 -1012 -1013 -1014 -655 0
-1012 1013 655 0
1012 -1013 655 0
1011 655 0
1014 655 0
1011 -1012 1013 1014 -656 0
-1011 1012 1013 -1014 -656 0
-1011 -1012 656 0
-1011 1014 656 0
1011 1012 656 0
1011 -1014 656 0
-1013 656 0
655 656 -657 0
-655 656 -657 0
-656 657 0
-655 656 -658 0
-655 -656 -658 0
655 658 0
-1015 1016 1017 -1018 -659 0
-1015 -1016 -1017 -1018 -659 0
-1016 1017 659 0
1016 -1017 659 0
1015 659 0
1018 659 0
1015 -1016 1017 1018 -660 0
-1015 1016 1017 -1018 -660 0
-1015 -1016 660 0
-1015 1018 660 0
1015 1016 660 0
1015 -1018 660 0
-1017 660 0
659 660 -661 0
-659 660 -661 0
-660 661 0
-659 660 -662 0
-659 -660 -662 0
659 662 0
-1019 1020 1021 -1022 -663 0
-1019 -1020 -1021 -1022 -663 0
-1020 1021 663 0
1020 -1021 663 0
1019 663 0
1022 663 0
1019 -1020 1021 1022 -664 0
-1019 1020 1021 -1022 -664 0
-1019 -1020 664 0
-1019 1022 664 0
1019 1020 664 0
1019 -1022 664 0
-1021 664 0
663 664 -665 0
-663 664 -665 0
-664 665 0
-663 664 -666 0
-663 -664 -666 0
663 666 0
-1023 1024 1025 -1026 -667 0
-1023 -1024 -1025 -1026 -667 0
-1024 1025 667 0
1024 -1025 667 0
1023 667 0
1026 667 0
1023 -1024 1025 1026 -668 0
-1023 1024 1025 -1026 -668 0
-1023 -1024 668 0
-1023 1026 668 0
1023 1024 668 0
1023 -1026 668 0
-1025 668 0
667 668 -669 0
-667 668 -669 0
-668 669 0
-667 668 -670 0
-667 -668 -670 0
667 670 0
-149 150 151 -152 -671 0
-149 -150 -151 -152 -671 0
-150 151 671 0
150 -151 671 0
149 671 0
152 671 0
149 -150 151 152 -672 0
-149 150 151 -152 -672 0
-149 -150 672 0
-149 152 672 0
149 150 672 0
149 -152 672 0
-151 672 0
-153 154 181 -182 -673 0
-153 -154 -181 -182 -673 0
-154 181 673 0
154 -181 673 0
153 673 0
182 673 0
153 -154 181 182 -674 0
-153 154 181 -182 -674 0
-153 -154 674 0
-153 182 674 0
153 154 674 0
153 -182 674 0
-181 674 0
-671 672 673 -674 -675 0
-671 -672 -673 -674 -675 0
-672 673 675 0
672 -673 675 0
671 675 0
674 675 0
671 -672 673 674 -676 0
-671 672 673 -674 -676 0
-671 -672 676 0
-671 674 676 0
671 672 676 0
671 -674 676 0
-673 676 0
187 188 -677 0
-187 188 -677 0
-188 677 0
-187 188 -678 0
-187 -188 -678 0
187 678 0
-1027 1028 1029 -1030 -679 0
-1027 -1028 -1029 -1030 -679 0
-1028 1029 679 0
1028 -1029 679 0
1027 679 0
1030 679 0
1027 -1028 1029 1030 -680 0
-1027 1028 1029 -1030 -680 0
-1027 -1028 680 0
-1027 1030 680 0
1027 1028 680 0
1027 -1030 680 0
-1029 680 0
679 680 -681 0
-679 680 -681 0
-680 681 0
-679 680 -682 0
-679 -680 -682 0
679 682 0
-1031 1032 1033 -1034 -683 0
-1031 -1032 -1033 -1034 -683 0
-1032 1033 683 0
1032 -1033 683 0
1031 683 0
1034 683 0
1031 -1032 1033 1034 -684 0
-1031 1032 1033 -1034 -684 0
-1031 -1032 684 0
-1031 1034 684 0
1031 1032 684 0
1031 -1034 684 0
-1033 684 0
683 684 -685 0
-683 684 -685 0
-684 685 0
-683 684 -686 0
-683 -684 -686 0
683 686 0
-1035 1036 1037 -1038 -687 0
-1035 -1036 -1037 -1038 -687 0
-1036 1037 687 0
1036 -1037 687 0
1035 687 0
1038 687 0
1035 -1036 1037 1038 -688 0
-1035 1036 1037 -1038 -688 0
-1035 -1036 688 0
-1035 1038 688 0
1035 1036 688 0
1035 -1038 688 0
-1037 688 0
687 688 -689 0
-687 688 -689 0
-688 689 0
-687 688 -690 0
-687 -688 -690 0
687 690 0
-1039 1040 1041 -1042 -691 0
-1039 -1040 -1041 -1042 -691 0
-1040 1041 691 0
1040 -1041 691 0
1039 691 0
1042 691 0
1039 -1040 1041 1042 -692 0
-1039 1040 1041 -1042 -692 0
-1039 -1040 692 0
-1039 1042 692 0
1039 1040 692 0
1039 -1042 692 0
-1041 692 0
691 692 -693 0
-691 692 -693 0
-692 693 0
-691 692 -694 0
-691 -692 -694 0
691 694 0
-231 232 627 -628 -695 0
-231 -232 -627 -628 -695 0
-232 627 695 0
232 -627 695 0
231 695 0
628 695 0
231 -232 627 628 -696 0
-231 232 627 -628 -696 0
-231 -232 696 0
-231 628 696 0
231 232 696 0
231 -628 696 0
-627 696 0
-1043 1044 1045 -1046 -697 0
-1043 -1044 -1045 -1046 -697 0
-1044 1045 697 0
1044 -1045 697 0
1043 697 0
1046 697 0
1043 -1044 1045 1046 -698 0
-1043 1044 1045 -1046 -698 0
-1043 -1044 698 0
-1043 1046 698 0
1043 1044 698 0
1043 -1046 698 0
-1045 698 0
697 698 -699 0
-697 698 -699 0
-698 699 0
-697 698 -700 0
-697 -698 -700 0
697 700 0
-77 78 177 -178 -701 0
-77 -78 -177 -178 -701 0
-78 177 701 0
78 -177 701 0
77 701 0
178 701 0
77 -78 177 178 -702 0
-77 78 177 -178 -702 0
-77 -78 702 0
-77 178 702 0
77 78 702 0
77 -178 702 0
-177 702 0
-1047 1048 1049 -1050 -703 0
-1047 -1048 -1049 -1050 -703 0
-1048 1049 703 0
1048 -1049 703 0
1047 703 0
1050 703 0
1047 -1048 1049 1050 -704 0
-1047 1048 1049 -1050 -704 0
-1047 -1048 704 0
-1047 1050 704 0
1047 1048 704 0
1047 -1050 704 0
-1049 704 0
703 704 -705 0
-703 704 -705 0
-704 705 0
-703 704 -706 0
-703 -704 -706 0
703 706 0
-989 990 1051 -1052 -707 0
-989 -990 -1051 -1052 -707 0
-990 1051 707 0
990 -1051 707 0
989 707 0
1052 707 0
989 -990 1051 1052 -708 0
-989 990 1051 -1052 -708 0
-989 -990 708 0
-989 1052 708 0
989 990 708 0
989 -1052 708 0
-1051 708 0
707 708 -709 0
-707 708 -709 0
-708 709 0
-707 708 -710 0
-707 -708 -710 0
707 710 0
-1053 1054 1055 -1056 -711 0
-1053 -1054 -1055 -1056 -711 0
-1054 1055 711 0
1054 -1055 711 0
1053 711 0
1056 711 0
1053 -1054 1055 1056 -712 0
-1053 1054 1055 -1056 -712 0
-1053 -1054 712 0
-1053 1056 712 0
1053 1054 712 0
1053 -1056 712 0
-1055 712 0
711 712 -713 0
-711 712 -713 0
-712 713 0
-711 712 -714 0
-711 -712 -714 0
711 714 0
-1057 1058 1059 -1060 -715 0
-1057 -1058 -1059 -1060 -715 0
-1058 1059 715 0
1058 -1059 715 0
1057 715 0
1060 715 0
1057 -1058 1059 1060 -716 0
-1057 1058 1059 -1060 -716 0
-1057 -1058 716 0
-1057 1060 716 0
1057 1058 716 0
1057 -1060 716 0
-1059 716 0
715 716 -717 0
-715 716 -717 0
-716 717 0
-715 716 -718 0
-715 -716 -718 0
715 718 0
-1061 1062 1063 -1064 -719 0
-1061 -1062 -1063 -1064 -719 0
-1062 1063 719 0
1062 -1063 719 0
1061 719 0
1064 719 0
1061 -1062 1063 1064 -720 0
-1061 1062 1063 -1064 -720 0
-1061 -1062 720 0
-1061 1064 720 0
1061 1062 720 0
1061 -1064 720 0
-1063 720 0
719 720 -721 0
-719 720 -721 0
-720 721 0
-719 720 -722 0
-719 -720 -722 0
719 722 0
-1065 1066 1067 -1068 -723 0
-1065 -1066 -1067 -1068 -723 0
-1066 1067 723 0
1066 -1067 723 0
1065 723 0
1068 723 0
1065 -1066 1067 1068 -724 0
-1065 1066 1067 -1068 -724 0
-1065 -1066 724 0
-1065 1068 724 0
1065 1066 724 0
1065 -1068 724 0
-1067 724 0
723 724 -725 0
-723 724 -725 0
-724 725 0
-723 724 -726 0
-723 -724 -726 0
723 726 0
-1069 1070 1071 -1072 -727 0
-1069 -1070 -1071 -1072 -727 0
-1070 1071 727 0
1070 -1071 727 0
1069 727 0
1072 727 0
1069 -1070 1071 1072 -728 0
-1069 1070 1071 -1072 -728 0
-1069 -1070 728 0
-1069 1072 728 0
1069 1070 728 0
1069 -1072 728 0
-1071 728 0
727 728 -729 0
-727 728 -729 0
-728 729 0
-727 728 -730 0
-727 -728 -730 0
727 730 0
-1073 1074 1075 -1076 -731 0
-1073 -1074 -1075 -1076 -731 0
-1074 1075 731 0
1074 -1075 731 0
1073 731 0
1076 731 0
1073 -1074 1075 1076 -732 0
-1073 1074 1075 -1076 -732 0
-1073 -1074 732 0
-1073 1076 732 0
1073 1074 732 0
1073 -1076 732 0
-1075 732 0
731 732 -733 0
-731 732 -733 0
-732 733 0
-731 732 -734 0
-731 -732 -734 0
731 734 0
-991 992 1077 -1078 -735 0
-991 -992 -1077 -1078 -735 0
-992 1077 735 0
992 -1077 735 0
991 735 0
1078 735 0
991 -992 1077 1078 -736 0
-991 992 1077 -1078 -736 0
-991 -992 736 0
-991 1078 736 0
991 992 736 0
991 -1078 736 0
-1077 736 0
735 736 -737 0
-735 736 -737 0
-736 737 0
-735 736 -738 0
-735 -736 -738 0
735 738 0
-1079 1080 1081 -1082 -739 0
-1079 -1080 -1081 -1082 -739 0
-1080 1081 739 0
1080 -1081 739 0
1079 739 0
1082 739 0
1079 -1080 1081 1082 -740 0
-1079 1080 1081 -1082 -740 0
-1079 -1080 740 0
-1079 1082 740 0
1079 1080 740 0
1079 -1082 740 0
-1081 740 0
-65 66 91 -92 -741 0
-65 -66 -91 -92 -741 0
-66 91 741 0
66 -91 741 0
65 741 0
92 741 0
65 -66 91 92 -742 0
-65 66 91 -92 -742 0
-65 -66 742 0
-65 92 742 0
65 66 742 0
65 -92 742 0
-91 742 0
-739 740 741 -742 -743 0
-739 -740 -741 -742 -743 0
-740 741 743 0
740 -741 743 0
739 743 0
742 743 0
739 -740 741 742 -744 0
-739 740 741 -742 -744 0
-739 -740 744 0
-739 742 744 0
739 740 744 0
739 -742 744 0
-741 744 0
-101 102 103 -104 -745 0
-101 -102 -103 -104 -745 0
-102 103 745 0
102 -103 745 0
101 745 0
104 745 0
101 -102 103 104 -746 0
-101 102 103 -104 -746 0
-101 -102 746 0
-101 104 746 0
101 102 746 0
101 -104 746 0
-103 746 0
747 0
748 0
-97 98 99 -100 -749 0
-97 -98 -99 -100 -749 0
-98 99 749 0
98 -99 749 0
97 749 0
100 749 0
97 -98 99 100 -750 0
-97 98 99 -100 -750 0
-97 -98 750 0
-97 100 750 0
97 98 750 0
97 -100 750 0
-99 750 0
751 0
752 0
-101 102 103 -104 -753 0
-101 -102 -103 -104 -753 0
-102 103 753 0
102 -103 753 0
101 753 0
104 753 0
101 -102 103 104 -754 0
-101 102 103 -104 -754 0
-101 -102 754 0
-101 104 754 0
101 102 754 0
101 -104 754 0
-103 754 0
755 0
756 0
757 0
758 0
-1083 1084 1085 -1086 -759 0
-1083 -1084 -1085 -1086 -759 0
-1084 1085 759 0
1084 -1085 759 0
1083 759 0
1086 759 0
1083 -1084 1085 1086 -760 0
-1083 1084 1085 -1086 -760 0
-1083 -1084 760 0
-1083 1086 760 0
1083 1084 760 0
1083 -1086 760 0
-1085 760 0
759 760 -761 0
-759 760 -761 0
-760 761 0
-759 760 -762 0
-759 -760 -762 0
759 762 0
-1087 1088 1089 -1090 -763 0
-1087 -1088 -1089 -1090 -763 0
-1088 1089 763 0
1088 -1089 763 0
1087 763 0
1090 763 0
1087 -1088 1089 1090 -764 0
-1087 1088 1089 -1090 -764 0
-1087 -1088 764 0
-1087 1090 764 0
1087 1088 764 0
1087 -1090 764 0
-1089 764 0
763 764 -765 0
-763 764 -765 0
-764 765 0
-763 764 -766 0
-763 -764 -766 0
763 766 0
-1091 1092 1093 -1094 -767 0
-1091 -1092 -1093 -1094 -767 0
-1092 1093 767 0
1092 -1093 767 0
1091 767 0
1094 767 0
1091 -1092 1093 1094 -768 0
-1091 1092 1093 -1094 -768 0
-1091 -1092 768 0
-1091 1094 768 0
1091 1092 768 0
1091 -1094 768 0
-1093 768 0
767 768 -769 0
-767 768 -769 0
-768 769 0
-767 768 -770 0
-767 -768 -770 0
767 770 0
-1095 1096 1097 -1098 -771 0
-1095 -1096 -1097 -1098 -771 0
-1096 1097 771 0
1096 -1097 771 0
1095 771 0
1098 771 0
1095 -1096 1097 1098 -772 0
-1095 1096 1097 -1098 -772 0
-1095 -1096 772 0
-1095 1098 772 0
1095 1096 772 0
1095 -1098 772 0
-1097 772 0
771 772 -773 0
-771 772 -773 0
-772 773 0
-771 772 -774 0
-771 -772 -774 0
771 774 0
-1099 1100 1101 -1102 -775 0
-1099 -1100 -1101 -1102 -775 0
-1100 1101 775 0
1100 -1101 775 0
1099 775 0
1102 775 0
1099 -1100 1101 1102 -776 0
-1099 1100 1101 -1102 -776 0
-1099 -1100 776 0
-1099 1102 776 0
1099 1100 776 0
1099 -1102 776 0
-1101 776 0
775 776 -777 0
-775 776 -777 0
-776 777 0
-775 776 -778 0
-775 -776 -778 0
775 778 0
-1103 1104 1105 -1106 -779 0
-1103 -1104 -1105 -1106 -779 0
-1104 1105 779 0
1104 -1105 779 0
1103 779 0
1106 779 0
1103 -1104 1105 1106 -780 0
-1103 1104 1105 -1106 -780 0
-1103 -1104 780 0
-1103 1106 780 0
1103 1104 780 0
1103 -1106 780 0
-1105 780 0
779 780 -781 0
-779 780 -781 0
-780 781 0
-779 780 -782 0
-779 -780 -782 0
779 782 0
-121 122 269 -270 -783 0
-121 -122 -269 -270 -783 0
-122 269 783 0
122 -269 783 0
121 783 0
270 783 0
121 -122 269 270 -784 0
-121 122 269 -270 -784 0
-121 -122 784 0
-121 270 784 0
121 122 784 0
121 -270 784 0
-269 784 0
-257 258 783 -784 -785 0
-257 -258 -783 -784 -785 0
-258 783 785 0
258 -783 785 0
257 785 0
784 785 0
257 -258 783 784 -786 0
-257 258 783 -784 -786 0
-257 -258 786 0
-257 784 786 0
257 258 786 0
257 -784 786 0
-783 786 0
-1107 1108 1109 -1110 -787 0
-1107 -1108 -1109 -1110 -787 0
-1108 1109 787 0
1108 -1109 787 0
1107 787 0
1110 787 0
1107 -1108 1109 1110 -788 0
-1107 1108 1109 -1110 -788 0
-1107 -1108 788 0
-1107 1110 788 0
1107 1108 788 0
1107 -1110 788 0
-1109 788 0
-129 130 787 -788 -789 0
-129 -130 -787 -788 -789 0
-130 787 789 0
130 -787 789 0
129 789 0
788 789 0
129 -130 787 788 -790 0
-129 130 787 -788 -790 0
-129 -130 790 0
-129 788 790 0
129 130 790 0
129 -788 790 0
-787 790 0
-121 122 1111 -1112 -791 0
-121 -122 -1111 -1112 -791 0
-122 1111 791 0
122 -1111 791 0
121 791 0
1112 791 0
121 -122 1111 1112 -792 0
-121 122 1111 -1112 -792 0
-121 -122 792 0
-121 1112 792 0
121 122 792 0
121 -1112 792 0
-1111 792 0
791 792 -793 0
-791 792 -793 0
-792 793 0
-791 792 -794 0
-791 -792 -794 0
791 794 0
-799 800 1113 -1114 -795 0
-799 -800 -1113 -1114 -795 0
-800 1113 795 0
800 -1113 795 0
799 795 0
1114 795 0
799 -800 1113 1114 -796 0
-799 800 1113 -1114 -796 0
-799 -800 796 0
-799 1114 796 0
799 800 796 0
799 -1114 796 0
-1113 796 0
795 796 -797 0
-795 796 -797 0
-796 797 0
-795 796 -798 0
-795 -796 -798 0
795 798 0
-1115 1116 1117 -1118 -799 0
-1115 -1116 -1117 -1118 -799 0
-1116 1117 799 0
1116 -1117 799 0
1115 799 0
1118 799 0
1115 -1116 1117 1118 -800 0
-1115 1116 1117 -1118 -800 0
-1115 -1116 800 0
-1115 1118 800 0
1115 1116 800 0
1115 -1118 800 0
-1117 800 0
-1119 1120 805 -806 -801 0
-1119 -1120 -805 -806 -801 0
-1120 805 801 0
1120 -805 801 0
1119 801 0
806 801 0
1119 -1120 805 806 -802 0
-1119 1120 805 -806 -802 0
-1119 -1120 802 0
-1119 806 802 0
1119 1120 802 0
1119 -806 802 0
-805 802 0
-799 800 801 -802 -803 0
-799 -800 -801 -802 -803 0
-800 801 803 0
800 -801 803 0
799 803 0
802 803 0
799 -800 801 802 -804 0
-799 800 801 -802 -804 0
-799 -800 804 0
-799 802 804 0
799 800 804 0
799 -802 804 0
-801 804 0
-1121 1122 1123 -1124 -805 0
-1121 -1122 -1123 -1124 -805 0
-1122 1123 805 0
1122 -1123 805 0
1121 805 0
1124 805 0
1121 -1122 1123 1124 -806 0
-1121 1122 1123 -1124 -806 0
-1121 -1122 806 0
-1121 1124 806 0
1121 1122 806 0
1121 -1124 806 0
-1123 806 0
-799 800 805 -806 -807 0
-799 -800 -805 -806 -807 0
-800 805 807 0
800 -805 807 0
799 807 0
806 807 0
799 -800 805 806 -808 0
-799 800 805 -806 -808 0
-799 -800 808 0
-799 806 808 0
799 800 808 0
799 -806 808 0
-805 808 0
-805 806 1125 -1126 -809 0
-805 -806 -1125 -1126 -809 0
-806 1125 809 0
806 -1125 809 0
805 809 0
1126 809 0
805 -806 1125 1126 -810 0
-805 806 1125 -1126 -810 0
-805 -806 810 0
-805 1126 810 0
805 806 810 0
805 -1126 810 0
-1125 810 0
809 810 -811 0
-809 810 -811 0
-810 811 0
-809 810 -812 0
-809 -810 -812 0
809 812 0
-1127 1128 1129 -1130 -813 0
-1127 -1128 -1129 -1130 -813 0
-1128 1129 813 0
1128 -1129 813 0
1127 813 0
1130 813 0
1127 -1128 1129 1130 -814 0
-1127 1128 1129 -1130 -814 0
-1127 -1128 814 0
-1127 1130 814 0
1127 1128 814 0
1127 -1130 814 0
-1129 814 0
813 814 -815 0
-813 814 -815 0
-814 815 0
-813 814 -816 0
-813 -814 -816 0
813 816 0
-1131 1132 1133 -1134 -817 0
-1131 -1132 -1133 -1134 -817 0
-1132 1133 817 0
1132 -1133 817 0
1131 817 0
1134 817 0
1131 -1132 1133 1134 -818 0
-1131 1132 1133 -1134 -818 0
-1131 -1132 818 0
-1131 1134 818 0
1131 1132 818 0
1131 -1134 818 0
-1133 818 0
817 818 -819 0
-817 818 -819 0
-818 819 0
-817 818 -820 0
-817 -818 -820 0
817 820 0
-1135 1136 1137 -1138 -821 0
-1135 -1136 -1137 -1138 -821 0
-1136 1137 821 0
1136 -1137 821 0
1135 821 0
1138 821 0
1135 -1136 1137 1138 -822 0
-1135 1136 1137 -1138 -822 0
-1135 -1136 822 0
-1135 1138 822 0
1135 1136 822 0
1135 -1138 822 0
-1137 822 0
821 822 -823 0
-821 822 -823 0
-822 823 0
-821 822 -824 0
-821 -822 -824 0
821 824 0
825 0
826 0
827 0
828 0
829 0
830 0
831 0
832 0
833 0
834 0
-1139 1140 1141 -1142 -835 0
-1139 -1140 -1141 -1142 -835 0
-1140 1141 835 0
1140 -1141 835 0
1139 835 0
1142 835 0
1139 -1140 1141 1142 -836 0
-1139 1140 1141 -1142 -836 0
-1139 -1140 836 0
-1139 1142 836 0
1139 1140 836 0
1139 -1142 836 0
-1141 836 0
835 836 -837 0
-835 836 -837 0
-836 837 0
-835 836 -838 0
-835 -836 -838 0
835 838 0
-227 228 239 -240 -839 0
-227 -228 -239 -240 -839 0
-228 239 839 0
228 -239 839 0
227 839 0
240 839 0
227 -228 239 240 -840 0
-227 228 239 -240 -840 0
-227 -228 840 0
-227 240 840 0
227 228 840 0
227 -240 840 0
-239 840 0
-1143 1144 1145 -1146 -841 0
-1143 -1144 -1145 -1146 -841 0
-1144 1145 841 0
1144 -1145 841 0
1143 841 0
1146 841 0
1143 -1144 1145 1146 -842 0
-1143 1144 1145 -1146 -842 0
-1143 -1144 842 0
-1143 1146 842 0
1143 1144 842 0
1143 -1146 842 0
-1145 842 0
841 842 -843 0
-841 842 -843 0
-842 843 0
-841 842 -844 0
-841 -842 -844 0
841 844 0
-265 266 1147 -1148 -845 0
-265 -266 -1147 -1148 -845 0
-266 1147 845 0
266 -1147 845 0
265 845 0
1148 845 0
265 -266 1147 1148 -846 0
-265 266 1147 -1148 -846 0
-265 -266 846 0
-265 1148 846 0
265 266 846 0
265 -1148 846 0
-1147 846 0
845 846 -847 0
-845 846 -847 0
-846 847 0
-845 846 -848 0
-845 -846 -848 0
845 848 0
-201 202 203 -204 -849 0
-201 -202 -203 -204 -849 0
-202 203 849 0
202 -203 849 0
201 849 0
204 849 0
201 -202 203 204 -850 0
-201 202 203 -204 -850 0
-201 -202 850 0
-201 204 850 0
201 202 850 0
201 -204 850 0
-203 850 0
-515 516 1149 -1150 -851 0
-515 -516 -1149 -1150 -851 0
-516 1149 851 0
516 -1149 851 0
515 851 0
1150 851 0
515 -516 1149 1150 -852 0
-515 516 1149 -1150 -852 0
-515 -516 852 0
-515 1150 852 0
515 516 852 0
515 -1150 852 0
-1149 852 0
-849 850 851 -852 -853 0
-849 -850 -851 -852 -853 0
-850 851 853 0
850 -851 853 0
849 853 0
852 853 0
849 -850 851 852 -854 0
-849 850 851 -852 -854 0
-849 -850 854 0
-849 852 854 0
849 850 854 0
849 -852 854 0
-851 854 0
-261 262 1151 -1152 -855 0
-261 -262 -1151 -1152 -855 0
-262 1151 855 0
262 -1151 855 0
261 855 0
1152 855 0
261 -262 1151 1152 -856 0
-261 262 1151 -1152 -856 0
-261 -262 856 0
-261 1152 856 0
261 262 856 0
261 -1152 856 0
-1151 856 0
855 856 -857 0
-855 856 -857 0
-856 857 0
-855 856 -858 0
-855 -856 -858 0
855 858 0
787 788 -859 0
-787 788 -859 0
-788 859 0
-787 788 -860 0
-787 -788 -860 0
787 860 0
-97 98 99 -100 -861 0
-97 -98 -99 -100 -861 0
-98 99 861 0
98 -99 861 0
97 861 0
100 861 0
97 -98 99 100 -862 0
-97 98 99 -100 -862 0
-97 -98 862 0
-97 100 862 0
97 98 862 0
97 -100 862 0
-99 862 0
863 0
864 0
865 0
866 0
-1153 1154 1155 -1156 -867 0
-1153 -1154 -1155 -1156 -867 0
-1154 1155 867 0
1154 -1155 867 0
1153 867 0
1156 867 0
1153 -1154 1155 1156 -868 0
-1153 1154 1155 -1156 -868 0
-1153 -1154 868 0
-1153 1156 868 0
1153 1154 868 0
1153 -1156 868 0
-1155 868 0
867 868 -869 0
-867 868 -869 0
-868 869 0
-867 868 -870 0
-867 -868 -870 0
867 870 0
-47 48 61 -62 -871 0
-47 -48 -61 -62 -871 0
-48 61 871 0
48 -61 871 0
47 871 0
62 871 0
47 -48 61 62 -872 0
-47 48 61 -62 -872 0
-47 -48 872 0
-47 62 872 0
47 48 872 0
47 -62 872 0
-61 872 0
-1157 1158 1159 -1160 -873 0
-1157 -1158 -1159 -1160 -873 0
-1158 1159 873 0
1158 -1159 873 0
1157 873 0
1160 873 0
1157 -1158 1159 1160 -874 0
-1157 1158 1159 -1160 -874 0
-1157 -1158 874 0
-1157 1160 874 0
1157 1158 874 0
1157 -1160 874 0
-1159 874 0
-83 84 153 -154 -875 0
-83 -84 -153 -154 -875 0
-84 153 875 0
84 -153 875 0
83 875 0
154 875 0
83 -84 153 154 -876 0
-83 84 153 -154 -876 0
-83 -84 876 0
-83 154 876 0
83 84 876 0
83 -154 876 0
-153 876 0
-125 126 153 -154 -877 0
-125 -126 -153 -154 -877 0
-126 153 877 0
126 -153 877 0
125 877 0
154 877 0
125 -126 153 154 -878 0
-125 126 153 -154 -878 0
-125 -126 878 0
-125 154 878 0
125 126 878 0
125 -154 878 0
-153 878 0
-1161 1162 1163 -1164 -879 0
-1161 -1162 -1163 -1164 -879 0
-1162 1163 879 0
1162 -1163 879 0
1161 879 0
1164 879 0
1161 -1162 1163 1164 -880 0
-1161 1162 1163 -1164 -880 0
-1161 -1162 880 0
-1161 1164 880 0
1161 1162 880 0
1161 -1164 880 0
-1163 880 0
-161 162 787 -788 -881 0
-161 -162 -787 -788 -881 0
-162 787 881 0
162 -787 881 0
161 881 0
788 881 0
161 -162 787 788 -882 0
-161 162 787 -788 -882 0
-161 -162 882 0
-161 788 882 0
161 162 882 0
161 -788 882 0
-787 882 0
-1165 1166 1167 -1168 -883 0
-1165 -1166 -1167 -1168 -883 0
-1166 1167 883 0
1166 -1167 883 0
1165 883 0
1168 883 0
1165 -1166 1167 1168 -884 0
-1165 1166 1167 -1168 -884 0
-1165 -1166 884 0
-1165 1168 884 0
1165 1166 884 0
1165 -1168 884 0
-1167 884 0
-1169 1170 1171 -1172 -885 0
-1169 -1170 -1171 -1172 -885 0
-1170 1171 885 0
1170 -1171 885 0
1169 885 0
1172 885 0
1169 -1170 1171 1172 -886 0
-1169 1170 1171 -1172 -886 0
-1169 -1170 886 0
-1169 1172 886 0
1169 1170 886 0
1169 -1172 886 0
-1171 886 0
-1173 1174 1175 -1176 -887 0
-1173 -1174 -1175 -1176 -887 0
-1174 1175 887 0
1174 -1175 887 0
1173 887 0
1176 887 0
1173 -1174 1175 1176 -888 0
-1173 1174 1175 -1176 -888 0
-1173 -1174 888 0
-1173 1176 888 0
1173 1174 888 0
1173 -1176 888 0
-1175 888 0
-151 152 181 -182 -889 0
-151 -152 -181 -182 -889 0
-152 181 889 0
152 -181 889 0
151 889 0
182 889 0
151 -152 181 182 -890 0
-151 152 181 -182 -890 0
-151 -152 890 0
-151 182 890 0
151 152 890 0
151 -182 890 0
-181 890 0
-1177 1178 1179 -1180 -891 0
-1177 -1178 -1179 -1180 -891 0
-1178 1179 891 0
1178 -1179 891 0
1177 891 0
1180 891 0
1177 -1178 1179 1180 -892 0
-1177 1178 1179 -1180 -892 0
-1177 -1178 892 0
-1177 1180 892 0
1177 1178 892 0
1177 -1180 892 0
-1179 892 0
-1181 1182 1183 -1184 -893 0
-1181 -1182 -1183 -1184 -893 0
-1182 1183 893 0
1182 -1183 893 0
1181 893 0
1184 893 0
1181 -1182 1183 1184 -894 0
-1181 1182 1183 -1184 -894 0
-1181 -1182 894 0
-1181 1184 894 0
1181 1182 894 0
1181 -1184 894 0
-1183 894 0
-1185 1186 1187 -1188 -895 0
-1185 -1186 -1187 -1188 -895 0
-1186 1187 895 0
1186 -1187 895 0
1185 895 0
1188 895 0
1185 -1186 1187 1188 -896 0
-1185 1186 1187 -1188 -896 0
-1185 -1186 896 0
-1185 1188 896 0
1185 1186 896 0
1185 -1188 896 0
-1187 896 0
-105 106 195 -196 -897 0
-105 -106 -195 -196 -897 0
-106 195 897 0
106 -195 897 0
105 897 0
196 897 0
105 -106 195 196 -898 0
-105 106 195 -196 -898 0
-105 -106 898 0
-105 196 898 0
105 106 898 0
105 -196 898 0
-195 898 0
-1189 1190 1191 -1192 -899 0
-1189 -1190 -1191 -1192 -899 0
-1190 1191 899 0
1190 -1191 899 0
1189 899 0
1192 899 0
1189 -1190 1191 1192 -900 0
-1189 1190 1191 -1192 -900 0
-1189 -1190 900 0
-1189 1192 900 0
1189 1190 900 0
1189 -1192 900 0
-1191 900 0
-1193 1194 1195 -1196 -901 0
-1193 -1194 -1195 -1196 -901 0
-1194 1195 901 0
1194 -1195 901 0
1193 901 0
1196 901 0
1193 -1194 1195 1196 -902 0
-1193 1194 1195 -1196 -902 0
-1193 -1194 902 0
-1193 1196 902 0
1193 1194 902 0
1193 -1196 902 0
-1195 902 0
-1197 1198 1199 -1200 -903 0
-1197 -1198 -1199 -1200 -903 0
-1198 1199 903 0
1198 -1199 903 0
1197 903 0
1200 903 0
1197 -1198 1199 1200 -904 0
-1197 1198 1199 -1200 -904 0
-1197 -1198 904 0
-1197 1200 904 0
1197 1198 904 0
1197 -1200 904 0
-1199 904 0
-1 2 63 -64 -905 0
-1 -2 -63 -64 -905 0
-2 63 905 0
2 -63 905 0
1 905 0
64 905 0
1 -2 63 64 -906 0
-1 2 63 -64 -906 0
-1 -2 906 0
-1 64 906 0
1 2 906 0
1 -64 906 0
-63 906 0
-1201 1202 1203 -1204 -907 0
-1201 -1202 -1203 -1204 -907 0
-1202 1203 907 0
1202 -1203 907 0
1201 907 0
1204 907 0
1201 -1202 1203 1204 -908 0
-1201 1202 1203 -1204 -908 0
-1201 -1202 908 0
-1201 1204 908 0
1201 1202 908 0
1201 -1204 908 0
-1203 908 0
-1205 1206 1207 -1208 -909 0
-1205 -1206 -1207 -1208 -909 0
-1206 1207 909 0
1206 -1207 909 0
1205 909 0
1208 909 0
1205 -1206 1207 1208 -910 0
-1205 1206 1207 -1208 -910 0
-1205 -1206 910 0
-1205 1208 910 0
1205 1206 910 0
1205 -1208 910 0
-1207 910 0
-1209 1210 1211 -1212 -911 0
-1209 -1210 -1211 -1212 -911 0
-1210 1211 911 0
1210 -1211 911 0
1209 911 0
1212 911 0
1209 -1210 1211 1212 -912 0
-1209 1210 1211 -1212 -912 0
-1209 -1210 912 0
-1209 1212 912 0
1209 1210 912 0
1209 -1212 912 0
-1211 912 0
-1213 1214 1215 -1216 -913 0
-1213 -1214 -1215 -1216 -913 0
-1214 1215 913 0
1214 -1215 913 0
1213 913 0
1216 913 0
1213 -1214 1215 1216 -914 0
-1213 1214 1215 -1216 -914 0
-1213 -1214 914 0
-1213 1216 914 0
1213 1214 914 0
1213 -1216 914 0
-1215 914 0
-1217 1218 1219 -1220 -915 0
-1217 -1218 -1219 -1220 -915 0
-1218 1219 915 0
1218 -1219 915 0
1217 915 0
1220 915 0
1217 -1218 1219 1220 -916 0
-1217 1218 1219 -1220 -916 0
-1217 -1218 916 0
-1217 1220 916 0
1217 1218 916 0
1217 -1220 916 0
-1219 916 0
-1221 1222 1223 -1224 -917 0
-1221 -1222 -1223 -1224 -917 0
-1222 1223 917 0
1222 -1223 917 0
1221 917 0
1224 917 0
1221 -1222 1223 1224 -918 0
-1221 1222 1223 -1224 -918 0
-1221 -1222 918 0
-1221 1224 918 0
1221 1222 918 0
1221 -1224 918 0
-1223 918 0
-163 164 1225 -1226 -919 0
-163 -164 -1225 -1226 -919 0
-164 1225 919 0
164 -1225 919 0
163 919 0
1226 919 0
163 -164 1225 1226 -920 0
-163 164 1225 -1226 -920 0
-163 -164 920 0
-163 1226 920 0
163 164 920 0
163 -1226 920 0
-1225 920 0
-1227 1228 1229 -1230 -921 0
-1227 -1228 -1229 -1230 -921 0
-1228 1229 921 0
1228 -1229 921 0
1227 921 0
1230 921 0
1227 -1228 1229 1230 -922 0
-1227 1228 1229 -1230 -922 0
-1227 -1228 922 0
-1227 1230 922 0
1227 1228 922 0
1227 -1230 922 0
-1229 922 0
-1231 1232 1233 -1234 -923 0
-1231 -1232 -1233 -1234 -923 0
-1232 1233 923 0
1232 -1233 923 0
1231 923 0
1234 923 0
1231 -1232 1233 1234 -924 0
-1231 1232 1233 -1234 -924 0
-1231 -1232 924 0
-1231 1234 924 0
1231 1232 924 0
1231 -1234 924 0
-1233 924 0
-1235 1236 1237 -1238 -925 0
-1235 -1236 -1237 -1238 -925 0
-1236 1237 925 0
1236 -1237 925 0
1235 925 0
1238 925 0
1235 -1236 1237 1238 -926 0
-1235 1236 1237 -1238 -926 0
-1235 -1236 926 0
-1235 1238 926 0
1235 1236 926 0
1235 -1238 926 0
-1237 926 0
-95 96 255 -256 -927 0
-95 -96 -255 -256 -927 0
-96 255 927 0
96 -255 927 0
95 927 0
256 927 0
95 -96 255 256 -928 0
-95 96 255 -256 -928 0
-95 -96 928 0
-95 256 928 0
95 96 928 0
95 -256 928 0
-255 928 0
-109 110 111 -112 -929 0
-109 -110 -111 -112 -929 0
-110 111 929 0
110 -111 929 0
109 929 0
112 929 0
109 -110 111 112 -930 0
-109 110 111 -112 -930 0
-109 -110 930 0
-109 112 930 0
109 110 930 0
109 -112 930 0
-111 930 0
-109 110 111 -112 -931 0
-109 -110 -111 -112 -931 0
-110 111 931 0
110 -111 931 0
109 931 0
112 931 0
109 -110 111 112 -932 0
-109 110 111 -112 -932 0
-109 -110 932 0
-109 112 932 0
109 110 932 0
109 -112 932 0
-111 932 0
-109 110 113 -114 -933 0
-109 -110 -113 -114 -933 0
-110 113 933 0
110 -113 933 0
109 933 0
114 933 0
109 -110 113 114 -934 0
-109 110 113 -114 -934 0
-109 -110 934 0
-109 114 934 0
109 110 934 0
109 -114 934 0
-113 934 0
-1239 1240 1241 -1242 -935 0
-1239 -1240 -1241 -1242 -935 0
-1240 1241 935 0
1240 -1241 935 0
1239 935 0
1242 935 0
1239 -1240 1241 1242 -936 0
-1239 1240 1241 -1242 -936 0
-1239 -1240 936 0
-1239 1242 936 0
1239 1240 936 0
1239 -1242 936 0
-1241 936 0
-1243 1244 1245 -1246 -937 0
-1243 -1244 -1245 -1246 -937 0
-1244 1245 937 0
1244 -1245 937 0
1243 937 0
1246 937 0
1243 -1244 1245 1246 -938 0
-1243 1244 1245 -1246 -938 0
-1243 -1244 938 0
-1243 1246 938 0
1243 1244 938 0
1243 -1246 938 0
-1245 938 0
-179 180 1247 -1248 -939 0
-179 -180 -1247 -1248 -939 0
-180 1247 939 0
180 -1247 939 0
179 939 0
1248 939 0
179 -180 1247 1248 -940 0
-179 180 1247 -1248 -940 0
-179 -180 940 0
-179 1248 940 0
179 180 940 0
179 -1248 940 0
-1247 940 0
-179 180 1249 -1250 -941 0
-179 -180 -1249 -1250 -941 0
-180 1249 941 0
180 -1249 941 0
179 941 0
1250 941 0
179 -180 1249 1250 -942 0
-179 180 1249 -1250 -942 0
-179 -180 942 0
-179 1250 942 0
179 180 942 0
179 -1250 942 0
-1249 942 0
-179 180 1247 -1248 -943 0
-179 -180 -1247 -1248 -943 0
-180 1247 943 0
180 -1247 943 0
179 943 0
1248 943 0
179 -180 1247 1248 -944 0
-179 180 1247 -1248 -944 0
-179 -180 944 0
-179 1248 944 0
179 180 944 0
179 -1248 944 0
-1247 944 0
-179 180 1251 -1252 -945 0
-179 -180 -1251 -1252 -945 0
-180 1251 945 0
180 -1251 945 0
179 945 0
1252 945 0
179 -180 1251 1252 -946 0
-179 180 1251 -1252 -946 0
-179 -180 946 0
-179 1252 946 0
179 180 946 0
179 -1252 946 0
-1251 946 0
-179 180 1247 -1248 -947 0
-179 -180 -1247 -1248 -947 0
-180 1247 947 0
180 -1247 947 0
179 947 0
1248 947 0
179 -180 1247 1248 -948 0
-179 180 1247 -1248 -948 0
-179 -180 948 0
-179 1248 948 0
179 180 948 0
179 -1248 948 0
-1247 948 0
-179 180 1247 -1248 -949 0
-179 -180 -1247 -1248 -949 0
-180 1247 949 0
180 -1247 949 0
179 949 0
1248 949 0
179 -180 1247 1248 -950 0
-179 180 1247 -1248 -950 0
-179 -180 950 0
-179 1248 950 0
179 180 950 0
179 -1248 950 0
-1247 950 0
-113 114 179 -180 -951 0
-113 -114 -179 -180 -951 0
-114 179 951 0
114 -179 951 0
113 951 0
180 951 0
113 -114 179 180 -952 0
-113 114 179 -180 -952 0
-113 -114 952 0
-113 180 952 0
113 114 952 0
113 -180 952 0
-179 952 0
-179 180 1253 -1254 -953 0
-179 -180 -1253 -1254 -953 0
-180 1253 953 0
180 -1253 953 0
179 953 0
1254 953 0
179 -180 1253 1254 -954 0
-179 180 1253 -1254 -954 0
-179 -180 954 0
-179 1254 954 0
179 180 954 0
179 -1254 954 0
-1253 954 0
-179 180 1247 -1248 -955 0
-179 -180 -1247 -1248 -955 0
-180 1247 955 0
180 -1247 955 0
179 955 0
1248 955 0
179 -180 1247 1248 -956 0
-179 180 1247 -1248 -956 0
-179 -180 956 0
-179 1248 956 0
179 180 956 0
179 -1248 956 0
-1247 956 0
-179 180 1247 -1248 -957 0
-179 -180 -1247 -1248 -957 0
-180 1247 957 0
180 -1247 957 0
179 957 0
1248 957 0
179 -180 1247 1248 -958 0
-179 180 1247 -1248 -958 0
-179 -180 958 0
-179 1248 958 0
179 180 958 0
179 -1248 958 0
-1247 958 0
-111 112 179 -180 -959 0
-111 -112 -179 -180 -959 0
-112 179 959 0
112 -179 959 0
111 959 0
180 959 0
111 -112 179 180 -960 0
-111 112 179 -180 -960 0
-111 -112 960 0
-111 180 960 0
111 112 960 0
111 -180 960 0
-179 960 0
-179 180 1247 -1248 -961 0
-179 -180 -1247 -1248 -961 0
-180 1247 961 0
180 -1247 961 0
179 961 0
1248 961 0
179 -180 1247 1248 -962 0
-179 180 1247 -1248 -962 0
-179 -180 962 0
-179 1248 962 0
179 180 962 0
179 -1248 962 0
-1247 962 0
-109 110 179 -180 -963 0
-109 -110 -179 -180 -963 0
-110 179 963 0
110 -179 963 0
109 963 0
180 963 0
109 -110 179 180 -964 0
-109 110 179 -180 -964 0
-109 -110 964 0
-109 180 964 0
109 110 964 0
109 -180 964 0
-179 964 0
-1255 1256 1257 -1258 -965 0
-1255 -1256 -1257 -1258 -965 0
-1256 1257 965 0
1256 -1257 965 0
1255 965 0
1258 965 0
1255 -1256 1257 1258 -966 0
-1255 1256 1257 -1258 -966 0
-1255 -1256 966 0
-1255 1258 966 0
1255 1256 966 0
1255 -1258 966 0
-1257 966 0
-1259 1260 1261 -1262 -967 0
-1259 -1260 -1261 -1262 -967 0
-1260 1261 967 0
1260 -1261 967 0
1259 967 0
1262 967 0
1259 -1260 1261 1262 -968 0
-1259 1260 1261 -1262 -968 0
-1259 -1260 968 0
-1259 1262 968 0
1259 1260 968 0
1259 -1262 968 0
-1261 968 0
-1263 1264 1265 -1266 -969 0
-1263 -1264 -1265 -1266 -969 0
-1264 1265 969 0
1264 -1265 969 0
1263 969 0
1266 969 0
1263 -1264 1265 1266 -970 0
-1263 1264 1265 -1266 -970 0
-1263 -1264 970 0
-1263 1266 970 0
1263 1264 970 0
1263 -1266 970 0
-1265 970 0
-179 180 1267 -1268 -971 0
-179 -180 -1267 -1268 -971 0
-180 1267 971 0
180 -1267 971 0
179 971 0
1268 971 0
179 -180 1267 1268 -972 0
-179 180 1267 -1268 -972 0
-179 -180 972 0
-179 1268 972 0
179 180 972 0
179 -1268 972 0
-1267 972 0
-179 180 1269 -1270 -973 0
-179 -180 -1269 -1270 -973 0
-180 1269 973 0
180 -1269 973 0
179 973 0
1270 973 0
179 -180 1269 1270 -974 0
-179 180 1269 -1270 -974 0
-179 -180 974 0
-179 1270 974 0
179 180 974 0
179 -1270 974 0
-1269 974 0
-1271 1272 1273 -1274 -975 0
-1271 -1272 -1273 -1274 -975 0
-1272 1273 975 0
1272 -1273 975 0
1271 975 0
1274 975 0
1271 -1272 1273 1274 -976 0
-1271 1272 1273 -1274 -976 0
-1271 -1272 976 0
-1271 1274 976 0
1271 1272 976 0
1271 -1274 976 0
-1273 976 0
-1275 1276 1277 -1278 -977 0
-1275 -1276 -1277 -1278 -977 0
-1276 1277 977 0
1276 -1277 977 0
1275 977 0
1278 977 0
1275 -1276 1277 1278 -978 0
-1275 1276 1277 -1278 -978 0
-1275 -1276 978 0
-1275 1278 978 0
1275 1276 978 0
1275 -1278 978 0
-1277 978 0
-1279 1280 1281 -1282 -979 0
-1279 -1280 -1281 -1282 -979 0
-1280 1281 979 0
1280 -1281 979 0
1279 979 0
1282 979 0
1279 -1280 1281 1282 -980 0
-1279 1280 1281 -1282 -980 0
-1279 -1280 980 0
-1279 1282 980 0
1279 1280 980 0
1279 -1282 980 0
-1281 980 0
-1283 1284 1285 -1286 -981 0
-1283 -1284 -1285 -1286 -981 0
-1284 1285 981 0
1284 -1285 981 0
1283 981 0
1286 981 0
1283 -1284 1285 1286 -982 0
-1283 1284 1285 -1286 -982 0
-1283 -1284 982 0
-1283 1286 982 0
1283 1284 982 0
1283 -1286 982 0
-1285 982 0
-1287 1288 1289 -1290 -983 0
-1287 -1288 -1289 -1290 -983 0
-1288 1289 983 0
1288 -1289 983 0
1287 983 0
1290 983 0
1287 -1288 1289 1290 -984 0
-1287 1288 1289 -1290 -984 0
-1287 -1288 984 0
-1287 1290 984 0
1287 1288 984 0
1287 -1290 984 0
-1289 984 0
-71 72 1291 -1292 -985 0
-71 -72 -1291 -1292 -985 0
-72 1291 985 0
72 -1291 985 0
71 985 0
1292 985 0
71 -72 1291 1292 -986 0
-71 72 1291 -1292 -986 0
-71 -72 986 0
-71 1292 986 0
71 72 986 0
71 -1292 986 0
-1291 986 0
-1293 1294 1295 -1296 -987 0
-1293 -1294 -1295 -1296 -987 0
-1294 1295 987 0
1294 -1295 987 0
1293 987 0
1296 987 0
1293 -1294 1295 1296 -988 0
-1293 1294 1295 -1296 -988 0
-1293 -1294 988 0
-1293 1296 988 0
1293 1294 988 0
1293 -1296 988 0
-1295 988 0
-1297 1298 1299 -1300 -989 0
-1297 -1298 -1299 -1300 -989 0
-1298 1299 989 0
1298 -1299 989 0
1297 989 0
1300 989 0
1297 -1298 1299 1300 -990 0
-1297 1298 1299 -1300 -990 0
-1297 -1298 990 0
-1297 1300 990 0
1297 1298 990 0
1297 -1300 990 0
-1299 990 0
-739 740 1301 -1302 -991 0
-739 -740 -1301 -1302 -991 0
-740 1301 991 0
740 -1301 991 0
739 991 0
1302 991 0
739 -740 1301 1302 -992 0
-739 740 1301 -1302 -992 0
-739 -740 992 0
-739 1302 992 0
739 740 992 0
739 -1302 992 0
-1301 992 0
-237 238 1303 -1304 -993 0
-237 -238 -1303 -1304 -993 0
-238 1303 993 0
238 -1303 993 0
237 993 0
1304 993 0
237 -238 1303 1304 -994 0
-237 238 1303 -1304 -994 0
-237 -238 994 0
-237 1304 994 0
237 238 994 0
237 -1304 994 0
-1303 994 0
-1305 1306 1307 -1308 -995 0
-1305 -1306 -1307 -1308 -995 0
-1306 1307 995 0
1306 -1307 995 0
1305 995 0
1308 995 0
1305 -1306 1307 1308 -996 0
-1305 1306 1307 -1308 -996 0
-1305 -1306 996 0
-1305 1308 996 0
1305 1306 996 0
1305 -1308 996 0
-1307 996 0
-179 180 1309 -1310 -997 0
-179 -180 -1309 -1310 -997 0
-180 1309 997 0
180 -1309 997 0
179 997 0
1310 997 0
179 -180 1309 1310 -998 0
-179 180 1309 -1310 -998 0
-179 -180 998 0
-179 1310 998 0
179 180 998 0
179 -1310 998 0
-1309 998 0
-1311 1312 1313 -1314 -999 0
-1311 -1312 -1313 -1314 -999 0
-1312 1313 999 0
1312 -1313 999 0
1311 999 0
1314 999 0
1311 -1312 1313 1314 -1000 0
-1311 1312 1313 -1314 -1000 0
-1311 -1312 1000 0
-1311 1314 1000 0
1311 1312 1000 0
1311 -1314 1000 0
-1313 1000 0
-155 156 1315 -1316 -1001 0
-155 -156 -1315 -1316 -1001 0
-156 1315 1001 0
156 -1315 1001 0
155 1001 0
1316 1001 0
155 -156 1315 1316 -1002 0
-155 156 1315 -1316 -1002 0
-155 -156 1002 0
-155 1316 1002 0
155 156 1002 0
155 -1316 1002 0
-1315 1002 0
-1317 1318 1319 -1320 -1003 0
-1317 -1318 -1319 -1320 -1003 0
-1318 1319 1003 0
1318 -1319 1003 0
1317 1003 0
1320 1003 0
1317 -1318 1319 1320 -1004 0
-1317 1318 1319 -1320 -1004 0
-1317 -1318 1004 0
-1317 1320 1004 0
1317 1318 1004 0
1317 -1320 1004 0
-1319 1004 0
-1321 1322 1323 -1324 -1005 0
-1321 -1322 -1323 -1324 -1005 0
-1322 1323 1005 0
1322 -1323 1005 0
1321 1005 0
1324 1005 0
1321 -1322 1323 1324 -1006 0
-1321 1322 1323 -1324 -1006 0
-1321 -1322 1006 0
-1321 1324 1006 0
1321 1322 1006 0
1321 -1324 1006 0
-1323 1006 0
-1325 1326 1327 -1328 -1007 0
-1325 -1326 -1327 -1328 -1007 0
-1326 1327 1007 0
1326 -1327 1007 0
1325 1007 0
1328 1007 0
1325 -1326 1327 1328 -1008 0
-1325 1326 1327 -1328 -1008 0
-1325 -1326 1008 0
-1325 1328 1008 0
1325 1326 1008 0
1325 -1328 1008 0
-1327 1008 0
-1329 1330 1331 -1332 -1009 0
-1329 -1330 -1331 -1332 -1009 0
-1330 1331 1009 0
1330 -1331 1009 0
1329 1009 0
1332 1009 0
1329 -1330 1331 1332 -1010 0
-1329 1330 1331 -1332 -1010 0
-1329 -1330 1010 0
-1329 1332 1010 0
1329 1330 1010 0
1329 -1332 1010 0
-1331 1010 0
-1333 1334 1335 -1336 -1011 0
-1333 -1334 -1335 -1336 -1011 0
-1334 1335 1011 0
1334 -1335 1011 0
1333 1011 0
1336 1011 0
1333 -1334 1335 1336 -1012 0
-1333 1334 1335 -1336 -1012 0
-1333 -1334 1012 0
-1333 1336 1012 0
1333 1334 1012 0
1333 -1336 1012 0
-1335 1012 0
-231 232 1337 -1338 -1013 0
-231 -232 -1337 -1338 -1013 0
-232 1337 1013 0
232 -1337 1013 0
231 1013 0
1338 1013 0
231 -232 1337 1338 -1014 0
-231 232 1337 -1338 -1014 0
-231 -232 1014 0
-231 1338 1014 0
231 232 1014 0
231 -1338 1014 0
-1337 1014 0
-173 174 177 -178 -1015 0
-173 -174 -177 -178 -1015 0
-174 177 1015 0
174 -177 1015 0
173 1015 0
178 1015 0
173 -174 177 178 -1016 0
-173 174 177 -178 -1016 0
-173 -174 1016 0
-173 178 1016 0
173 174 1016 0
173 -178 1016 0
-177 1016 0
-787 788 1287 -1288 -1017 0
-787 -788 -1287 -1288 -1017 0
-788 1287 1017 0
788 -1287 1017 0
787 1017 0
1288 1017 0
787 -788 1287 1288 -1018 0
-787 788 1287 -1288 -1018 0
-787 -788 1018 0
-787 1288 1018 0
787 788 1018 0
787 -1288 1018 0
-1287 1018 0
-47 48 79 -80 -1019 0
-47 -48 -79 -80 -1019 0
-48 79 1019 0
48 -79 1019 0
47 1019 0
80 1019 0
47 -48 79 80 -1020 0
-47 48 79 -80 -1020 0
-47 -48 1020 0
-47 80 1020 0
47 48 1020 0
47 -80 1020 0
-79 1020 0
-1339 1340 1341 -1342 -1021 0
-1339 -1340 -1341 -1342 -1021 0
-1340 1341 1021 0
1340 -1341 1021 0
1339 1021 0
1342 1021 0
1339 -1340 1341 1342 -1022 0
-1339 1340 1341 -1342 -1022 0
-1339 -1340 1022 0
-1339 1342 1022 0
1339 1340 1022 0
1339 -1342 1022 0
-1341 1022 0
-87 88 181 -182 -1023 0
-87 -88 -181 -182 -1023 0
-88 181 1023 0
88 -181 1023 0
87 1023 0
182 1023 0
87 -88 181 182 -1024 0
-87 88 181 -182 -1024 0
-87 -88 1024 0
-87 182 1024 0
87 88 1024 0
87 -182 1024 0
-181 1024 0
-1343 1344 1345 -1346 -1025 0
-1343 -1344 -1345 -1346 -1025 0
-1344 1345 1025 0
1344 -1345 1025 0
1343 1025 0
1346 1025 0
1343 -1344 1345 1346 -1026 0
-1343 1344 1345 -1346 -1026 0
-1343 -1344 1026 0
-1343 1346 1026 0
1343 1344 1026 0
1343 -1346 1026 0
-1345 1026 0
-187 188 189 -190 -1027 0
-187 -188 -189 -190 -1027 0
-188 189 1027 0
188 -189 1027 0
187 1027 0
190 1027 0
187 -188 189 190 -1028 0
-187 188 189 -190 -1028 0
-187 -188 1028 0
-187 190 1028 0
187 188 1028 0
187 -190 1028 0
-189 1028 0
-187 188 189 -190 -1029 0
-187 -188 -189 -190 -1029 0
-188 189 1029 0
188 -189 1029 0
187 1029 0
190 1029 0
187 -188 189 190 -1030 0
-187 188 189 -190 -1030 0
-187 -188 1030 0
-187 190 1030 0
187 188 1030 0
187 -190 1030 0
-189 1030 0
-87 88 181 -182 -1031 0
-87 -88 -181 -182 -1031 0
-88 181 1031 0
88 -181 1031 0
87 1031 0
182 1031 0
87 -88 181 182 -1032 0
-87 88 181 -182 -1032 0
-87 -88 1032 0
-87 182 1032 0
87 88 1032 0
87 -182 1032 0
-181 1032 0
-1347 1348 1349 -1350 -1033 0
-1347 -1348 -1349 -1350 -1033 0
-1348 1349 1033 0
1348 -1349 1033 0
1347 1033 0
1350 1033 0
1347 -1348 1349 1350 -1034 0
-1347 1348 1349 -1350 -1034 0
-1347 -1348 1034 0
-1347 1350 1034 0
1347 1348 1034 0
1347 -1350 1034 0
-1349 1034 0
-83 84 1351 -1352 -1035 0
-83 -84 -1351 -1352 -1035 0
-84 1351 1035 0
84 -1351 1035 0
83 1035 0
1352 1035 0
83 -84 1351 1352 -1036 0
-83 84 1351 -1352 -1036 0
-83 -84 1036 0
-83 1352 1036 0
83 84 1036 0
83 -1352 1036 0
-1351 1036 0
-251 252 1351 -1352 -1037 0
-251 -252 -1351 -1352 -1037 0
-252 1351 1037 0
252 -1351 1037 0
251 1037 0
1352 1037 0
251 -252 1351 1352 -1038 0
-251 252 1351 -1352 -1038 0
-251 -252 1038 0
-251 1352 1038 0
251 252 1038 0
251 -1352 1038 0
-1351 1038 0
-253 254 1351 -1352 -1039 0
-253 -254 -1351 -1352 -1039 0
-254 1351 1039 0
254 -1351 1039 0
253 1039 0
1352 1039 0
253 -254 1351 1352 -1040 0
-253 254 1351 -1352 -1040 0
-253 -254 1040 0
-253 1352 1040 0
253 254 1040 0
253 -1352 1040 0
-1351 1040 0
-1353 1354 1355 -1356 -1041 0
-1353 -1354 -1355 -1356 -1041 0
-1354 1355 1041 0
1354 -1355 1041 0
1353 1041 0
1356 1041 0
1353 -1354 1355 1356 -1042 0
-1353 1354 1355 -1356 -1042 0
-1353 -1354 1042 0
-1353 1356 1042 0
1353 1354 1042 0
1353 -1356 1042 0
-1355 1042 0
-1357 1358 1359 -1360 -1043 0
-1357 -1358 -1359 -1360 -1043 0
-1358 1359 1043 0
1358 -1359 1043 0
1357 1043 0
1360 1043 0
1357 -1358 1359 1360 -1044 0
-1357 1358 1359 -1360 -1044 0
-1357 -1358 1044 0
-1357 1360 1044 0
1357 1358 1044 0
1357 -1360 1044 0
-1359 1044 0
-989 990 1361 -1362 -1045 0
-989 -990 -1361 -1362 -1045 0
-990 1361 1045 0
990 -1361 1045 0
989 1045 0
1362 1045 0
989 -990 1361 1362 -1046 0
-989 990 1361 -1362 -1046 0
-989 -990 1046 0
-989 1362 1046 0
989 990 1046 0
989 -1362 1046 0
-1361 1046 0
-1363 1364 1365 -1366 -1047 0
-1363 -1364 -1365 -1366 -1047 0
-1364 1365 1047 0
1364 -1365 1047 0
1363 1047 0
1366 1047 0
1363 -1364 1365 1366 -1048 0
-1363 1364 1365 -1366 -1048 0
-1363 -1364 1048 0
-1363 1366 1048 0
1363 1364 1048 0
1363 -1366 1048 0
-1365 1048 0
-1367 1368 1369 -1370 -1049 0
-1367 -1368 -1369 -1370 -1049 0
-1368 1369 1049 0
1368 -1369 1049 0
1367 1049 0
1370 1049 0
1367 -1368 1369 1370 -1050 0
-1367 1368 1369 -1370 -1050 0
-1367 -1368 1050 0
-1367 1370 1050 0
1367 1368 1050 0
1367 -1370 1050 0
-1369 1050 0
-1053 1054 1371 -1372 -1051 0
-1053 -1054 -1371 -1372 -1051 0
-1054 1371 1051 0
1054 -1371 1051 0
1053 1051 0
1372 1051 0
1053 -1054 1371 1372 -1052 0
-1053 1054 1371 -1372 -1052 0
-1053 -1054 1052 0
-1053 1372 1052 0
1053 1054 1052 0
1053 -1372 1052 0
-1371 1052 0
-1373 1374 1375 -1376 -1053 0
-1373 -1374 -1375 -1376 -1053 0
-1374 1375 1053 0
1374 -1375 1053 0
1373 1053 0
1376 1053 0
1373 -1374 1375 1376 -1054 0
-1373 1374 1375 -1376 -1054 0
-1373 -1374 1054 0
-1373 1376 1054 0
1373 1374 1054 0
1373 -1376 1054 0
-1375 1054 0
-1377 1378 1379 -1380 -1055 0
-1377 -1378 -1379 -1380 -1055 0
-1378 1379 1055 0
1378 -1379 1055 0
1377 1055 0
1380 1055 0
1377 -1378 1379 1380 -1056 0
-1377 1378 1379 -1380 -1056 0
-1377 -1378 1056 0
-1377 1380 1056 0
1377 1378 1056 0
1377 -1380 1056 0
-1379 1056 0
-1381 1382 1383 -1384 -1057 0
-1381 -1382 -1383 -1384 -1057 0
-1382 1383 1057 0
1382 -1383 1057 0
1381 1057 0
1384 1057 0
1381 -1382 1383 1384 -1058 0
-1381 1382 1383 -1384 -1058 0
-1381 -1382 1058 0
-1381 1384 1058 0
1381 1382 1058 0
1381 -1384 1058 0
-1383 1058 0
-1385 1386 1387 -1388 -1059 0
-1385 -1386 -1387 -1388 -1059 0
-1386 1387 1059 0
1386 -1387 1059 0
1385 1059 0
1388 1059 0
1385 -1386 1387 1388 -1060 0
-1385 1386 1387 -1388 -1060 0
-1385 -1386 1060 0
-1385 1388 1060 0
1385 1386 1060 0
1385 -1388 1060 0
-1387 1060 0
-1389 1390 1391 -1392 -1061 0
-1389 -1390 -1391 -1392 -1061 0
-1390 1391 1061 0
1390 -1391 1061 0
1389 1061 0
1392 1061 0
1389 -1390 1391 1392 -1062 0
-1389 1390 1391 -1392 -1062 0
-1389 -1390 1062 0
-1389 1392 1062 0
1389 1390 1062 0
1389 -1392 1062 0
-1391 1062 0
-1393 1394 1395 -1396 -1063 0
-1393 -1394 -1395 -1396 -1063 0
-1394 1395 1063 0
1394 -1395 1063 0
1393 1063 0
1396 1063 0
1393 -1394 1395 1396 -1064 0
-1393 1394 1395 -1396 -1064 0
-1393 -1394 1064 0
-1393 1396 1064 0
1393 1394 1064 0
1393 -1396 1064 0
-1395 1064 0
-1397 1398 1399 -1400 -1065 0
-1397 -1398 -1399 -1400 -1065 0
-1398 1399 1065 0
1398 -1399 1065 0
1397 1065 0
1400 1065 0
1397 -1398 1399 1400 -1066 0
-1397 1398 1399 -1400 -1066 0
-1397 -1398 1066 0
-1397 1400 1066 0
1397 1398 1066 0
1397 -1400 1066 0
-1399 1066 0
-207 208 1401 -1402 -1067 0
-207 -208 -1401 -1402 -1067 0
-208 1401 1067 0
208 -1401 1067 0
207 1067 0
1402 1067 0
207 -208 1401 1402 -1068 0
-207 208 1401 -1402 -1068 0
-207 -208 1068 0
-207 1402 1068 0
207 208 1068 0
207 -1402 1068 0
-1401 1068 0
-209 210 1401 -1402 -1069 0
-209 -210 -1401 -1402 -1069 0
-210 1401 1069 0
210 -1401 1069 0
209 1069 0
1402 1069 0
209 -210 1401 1402 -1070 0
-209 210 1401 -1402 -1070 0
-209 -210 1070 0
-209 1402 1070 0
209 210 1070 0
209 -1402 1070 0
-1401 1070 0
-1403 1404 1405 -1406 -1071 0
-1403 -1404 -1405 -1406 -1071 0
-1404 1405 1071 0
1404 -1405 1071 0
1403 1071 0
1406 1071 0
1403 -1404 1405 1406 -1072 0
-1403 1404 1405 -1406 -1072 0
-1403 -1404 1072 0
-1403 1406 1072 0
1403 1404 1072 0
1403 -1406 1072 0
-1405 1072 0
-1401 1402 1407 -1408 -1073 0
-1401 -1402 -1407 -1408 -1073 0
-1402 1407 1073 0
1402 -1407 1073 0
1401 1073 0
1408 1073 0
1401 -1402 1407 1408 -1074 0
-1401 1402 1407 -1408 -1074 0
-1401 -1402 1074 0
-1401 1408 1074 0
1401 1402 1074 0
1401 -1408 1074 0
-1407 1074 0
-213 214 1397 -1398 -1075 0
-213 -214 -1397 -1398 -1075 0
-214 1397 1075 0
214 -1397 1075 0
213 1075 0
1398 1075 0
213 -214 1397 1398 -1076 0
-213 214 1397 -1398 -1076 0
-213 -214 1076 0
-213 1398 1076 0
213 214 1076 0
213 -1398 1076 0
-1397 1076 0
-1409 1410 1411 -1412 -1077 0
-1409 -1410 -1411 -1412 -1077 0
-1410 1411 1077 0
1410 -1411 1077 0
1409 1077 0
1412 1077 0
1409 -1410 1411 1412 -1078 0
-1409 1410 1411 -1412 -1078 0
-1409 -1410 1078 0
-1409 1412 1078 0
1409 1410 1078 0
1409 -1412 1078 0
-1411 1078 0
-1413 1414 1415 -1416 -1079 0
-1413 -1414 -1415 -1416 -1079 0
-1414 1415 1079 0
1414 -1415 1079 0
1413 1079 0
1416 1079 0
1413 -1414 1415 1416 -1080 0
-1413 1414 1415 -1416 -1080 0
-1413 -1414 1080 0
-1413 1416 1080 0
1413 1414 1080 0
1413 -1416 1080 0
-1415 1080 0
-1417 1418 1419 -1420 -1081 0
-1417 -1418 -1419 -1420 -1081 0
-1418 1419 1081 0
1418 -1419 1081 0
1417 1081 0
1420 1081 0
1417 -1418 1419 1420 -1082 0
-1417 1418 1419 -1420 -1082 0
-1417 -1418 1082 0
-1417 1420 1082 0
1417 1418 1082 0
1417 -1420 1082 0
-1419 1082 0
-1421 1422 1423 -1424 -1083 0
-1421 -1422 -1423 -1424 -1083 0
-1422 1423 1083 0
1422 -1423 1083 0
1421 1083 0
1424 1083 0
1421 -1422 1423 1424 -1084 0
-1421 1422 1423 -1424 -1084 0
-1421 -1422 1084 0
-1421 1424 1084 0
1421 1422 1084 0
1421 -1424 1084 0
-1423 1084 0
-1425 1426 1427 -1428 -1085 0
-1425 -1426 -1427 -1428 -1085 0
-1426 1427 1085 0
1426 -1427 1085 0
1425 1085 0
1428 1085 0
1425 -1426 1427 1428 -1086 0
-1425 1426 1427 -1428 -1086 0
-1425 -1426 1086 0
-1425 1428 1086 0
1425 1426 1086 0
1425 -1428 1086 0
-1427 1086 0
-1429 1430 1431 -1432 -1087 0
-1429 -1430 -1431 -1432 -1087 0
-1430 1431 1087 0
1430 -1431 1087 0
1429 1087 0
1432 1087 0
1429 -1430 1431 1432 -1088 0
-1429 1430 1431 -1432 -1088 0
-1429 -1430 1088 0
-1429 1432 1088 0
1429 1430 1088 0
1429 -1432 1088 0
-1431 1088 0
-1433 1434 1435 -1436 -1089 0
-1433 -1434 -1435 -1436 -1089 0
-1434 1435 1089 0
1434 -1435 1089 0
1433 1089 0
1436 1089 0
1433 -1434 1435 1436 -1090 0
-1433 1434 1435 -1436 -1090 0
-1433 -1434 1090 0
-1433 1436 1090 0
1433 1434 1090 0
1433 -1436 1090 0
-1435 1090 0
-1437 1438 1439 -1440 -1091 0
-1437 -1438 -1439 -1440 -1091 0
-1438 1439 1091 0
1438 -1439 1091 0
1437 1091 0
1440 1091 0
1437 -1438 1439 1440 -1092 0
-1437 1438 1439 -1440 -1092 0
-1437 -1438 1092 0
-1437 1440 1092 0
1437 1438 1092 0
1437 -1440 1092 0
-1439 1092 0
-1441 1442 1443 -1444 -1093 0
-1441 -1442 -1443 -1444 -1093 0
-1442 1443 1093 0
1442 -1443 1093 0
1441 1093 0
1444 1093 0
1441 -1442 1443 1444 -1094 0
-1441 1442 1443 -1444 -1094 0
-1441 -1442 1094 0
-1441 1444 1094 0
1441 1442 1094 0
1441 -1444 1094 0
-1443 1094 0
-129 130 181 -182 -1095 0
-129 -130 -181 -182 -1095 0
-130 181 1095 0
130 -181 1095 0
129 1095 0
182 1095 0
129 -130 181 182 -1096 0
-129 130 181 -182 -1096 0
-129 -130 1096 0
-129 182 1096 0
129 130 1096 0
129 -182 1096 0
-181 1096 0
-1445 1446 1447 -1448 -1097 0
-1445 -1446 -1447 -1448 -1097 0
-1446 1447 1097 0
1446 -1447 1097 0
1445 1097 0
1448 1097 0
1445 -1446 1447 1448 -1098 0
-1445 1446 1447 -1448 -1098 0
-1445 -1446 1098 0
-1445 1448 1098 0
1445 1446 1098 0
1445 -1448 1098 0
-1447 1098 0
-125 126 1449 -1450 -1099 0
-125 -126 -1449 -1450 -1099 0
-126 1449 1099 0
126 -1449 1099 0
125 1099 0
1450 1099 0
125 -126 1449 1450 -1100 0
-125 126 1449 -1450 -1100 0
-125 -126 1100 0
-125 1450 1100 0
125 126 1100 0
125 -1450 1100 0
-1449 1100 0
-241 242 1449 -1450 -1101 0
-241 -242 -1449 -1450 -1101 0
-242 1449 1101 0
242 -1449 1101 0
241 1101 0
1450 1101 0
241 -242 1449 1450 -1102 0
-241 242 1449 -1450 -1102 0
-241 -242 1102 0
-241 1450 1102 0
241 242 1102 0
241 -1450 1102 0
-1449 1102 0
-243 244 1449 -1450 -1103 0
-243 -244 -1449 -1450 -1103 0
-244 1449 1103 0
244 -1449 1103 0
243 1103 0
1450 1103 0
243 -244 1449 1450 -1104 0
-243 244 1449 -1450 -1104 0
-243 -244 1104 0
-243 1450 1104 0
243 244 1104 0
243 -1450 1104 0
-1449 1104 0
-1451 1452 1453 -1454 -1105 0
-1451 -1452 -1453 -1454 -1105 0
-1452 1453 1105 0
1452 -1453 1105 0
1451 1105 0
1454 1105 0
1451 -1452 1453 1454 -1106 0
-1451 1452 1453 -1454 -1106 0
-1451 -1452 1106 0
-1451 1454 1106 0
1451 1452 1106 0
1451 -1454 1106 0
-1453 1106 0
-201 202 203 -204 -1107 0
-201 -202 -203 -204 -1107 0
-202 203 1107 0
202 -203 1107 0
201 1107 0
204 1107 0
201 -202 203 204 -1108 0
-201 202 203 -204 -1108 0
-201 -202 1108 0
-201 204 1108 0
201 202 1108 0
201 -204 1108 0
-203 1108 0
-1455 1456 1457 -1458 -1109 0
-1455 -1456 -1457 -1458 -1109 0
-1456 1457 1109 0
1456 -1457 1109 0
1455 1109 0
1458 1109 0
1455 -1456 1457 1458 -1110 0
-1455 1456 1457 -1458 -1110 0
-1455 -1456 1110 0
-1455 1458 1110 0
1455 1456 1110 0
1455 -1458 1110 0
-1457 1110 0
-181 182 1459 -1460 -1111 0
-181 -182 -1459 -1460 -1111 0
-182 1459 1111 0
182 -1459 1111 0
181 1111 0
1460 1111 0
181 -182 1459 1460 -1112 0
-181 182 1459 -1460 -1112 0
-181 -182 1112 0
-181 1460 1112 0
181 182 1112 0
181 -1460 1112 0
-1459 1112 0
-1461 1462 1463 -1464 -1113 0
-1461 -1462 -1463 -1464 -1113 0
-1462 1463 1113 0
1462 -1463 1113 0
1461 1113 0
1464 1113 0
1461 -1462 1463 1464 -1114 0
-1461 1462 1463 -1464 -1114 0
-1461 -1462 1114 0
-1461 1464 1114 0
1461 1462 1114 0
1461 -1464 1114 0
-1463 1114 0
-221 222 1465 -1466 -1115 0
-221 -222 -1465 -1466 -1115 0
-222 1465 1115 0
222 -1465 1115 0
221 1115 0
1466 1115 0
221 -222 1465 1466 -1116 0
-221 222 1465 -1466 -1116 0
-221 -222 1116 0
-221 1466 1116 0
221 222 1116 0
221 -1466 1116 0
-1465 1116 0
-1467 1468 1469 -1470 -1117 0
-1467 -1468 -1469 -1470 -1117 0
-1468 1469 1117 0
1468 -1469 1117 0
1467 1117 0
1470 1117 0
1467 -1468 1469 1470 -1118 0
-1467 1468 1469 -1470 -1118 0
-1467 -1468 1118 0
-1467 1470 1118 0
1467 1468 1118 0
1467 -1470 1118 0
-1469 1118 0
-247 248 1471 -1472 -1119 0
-247 -248 -1471 -1472 -1119 0
-248 1471 1119 0
248 -1471 1119 0
247 1119 0
1472 1119 0
247 -248 1471 1472 -1120 0
-247 248 1471 -1472 -1120 0
-247 -248 1120 0
-247 1472 1120 0
247 248 1120 0
247 -1472 1120 0
-1471 1120 0
-1473 1474 1475 -1476 -1121 0
-1473 -1474 -1475 -1476 -1121 0
-1474 1475 1121 0
1474 -1475 1121 0
1473 1121 0
1476 1121 0
1473 -1474 1475 1476 -1122 0
-1473 1474 1475 -1476 -1122 0
-1473 -1474 1122 0
-1473 1476 1122 0
1473 1474 1122 0
1473 -1476 1122 0
-1475 1122 0
-1477 1478 1479 -1480 -1123 0
-1477 -1478 -1479 -1480 -1123 0
-1478 1479 1123 0
1478 -1479 1123 0
1477 1123 0
1480 1123 0
1477 -1478 1479 1480 -1124 0
-1477 1478 1479 -1480 -1124 0
-1477 -1478 1124 0
-1477 1480 1124 0
1477 1478 1124 0
1477 -1480 1124 0
-1479 1124 0
-799 800 1119 -1120 -1125 0
-799 -800 -1119 -1120 -1125 0
-800 1119 1125 0
800 -1119 1125 0
799 1125 0
1120 1125 0
799 -800 1119 1120 -1126 0
-799 800 1119 -1120 -1126 0
-799 -800 1126 0
-799 1120 1126 0
799 800 1126 0
799 -1120 1126 0
-1119 1126 0
-1481 1482 1483 -1484 -1127 0
-1481 -1482 -1483 -1484 -1127 0
-1482 1483 1127 0
1482 -1483 1127 0
1481 1127 0
1484 1127 0
1481 -1482 1483 1484 -1128 0
-1481 1482 1483 -1484 -1128 0
-1481 -1482 1128 0
-1481 1484 1128 0
1481 1482 1128 0
1481 -1484 1128 0
-1483 1128 0
-1485 1486 1487 -1488 -1129 0
-1485 -1486 -1487 -1488 -1129 0
-1486 1487 1129 0
1486 -1487 1129 0
1485 1129 0
1488 1129 0
1485 -1486 1487 1488 -1130 0
-1485 1486 1487 -1488 -1130 0
-1485 -1486 1130 0
-1485 1488 1130 0
1485 1486 1130 0
1485 -1488 1130 0
-1487 1130 0
-141 142 787 -788 -1131 0
-141 -142 -787 -788 -1131 0
-142 787 1131 0
142 -787 1131 0
141 1131 0
788 1131 0
141 -142 787 788 -1132 0
-141 142 787 -788 -1132 0
-141 -142 1132 0
-141 788 1132 0
141 142 1132 0
141 -788 1132 0
-787 1132 0
-1489 1490 1491 -1492 -1133 0
-1489 -1490 -1491 -1492 -1133 0
-1490 1491 1133 0
1490 -1491 1133 0
1489 1133 0
1492 1133 0
1489 -1490 1491 1492 -1134 0
-1489 1490 1491 -1492 -1134 0
-1489 -1490 1134 0
-1489 1492 1134 0
1489 1490 1134 0
1489 -1492 1134 0
-1491 1134 0
-787 788 1493 -1494 -1135 0
-787 -788 -1493 -1494 -1135 0
-788 1493 1135 0
788 -1493 1135 0
787 1135 0
1494 1135 0
787 -788 1493 1494 -1136 0
-787 788 1493 -1494 -1136 0
-787 -788 1136 0
-787 1494 1136 0
787 788 1136 0
787 -1494 1136 0
-1493 1136 0
-1495 1496 1497 -1498 -1137 0
-1495 -1496 -1497 -1498 -1137 0
-1496 1497 1137 0
1496 -1497 1137 0
1495 1137 0
1498 1137 0
1495 -1496 1497 1498 -1138 0
-1495 1496 1497 -1498 -1138 0
-1495 -1496 1138 0
-1495 1498 1138 0
1495 1496 1138 0
1495 -1498 1138 0
-1497 1138 0
-93 94 193 -194 -1139 0
-93 -94 -193 -194 -1139 0
-94 193 1139 0
94 -193 1139 0
93 1139 0
194 1139 0
93 -94 193 194 -1140 0
-93 94 193 -194 -1140 0
-93 -94 1140 0
-93 194 1140 0
93 94 1140 0
93 -194 1140 0
-193 1140 0
-1499 1500 1501 -1502 -1141 0
-1499 -1500 -1501 -1502 -1141 0
-1500 1501 1141 0
1500 -1501 1141 0
1499 1141 0
1502 1141 0
1499 -1500 1501 1502 -1142 0
-1499 1500 1501 -1502 -1142 0
-1499 -1500 1142 0
-1499 1502 1142 0
1499 1500 1142 0
1499 -1502 1142 0
-1501 1142 0
-21 22 59 -60 -1143 0
-21 -22 -59 -60 -1143 0
-22 59 1143 0
22 -59 1143 0
21 1143 0
60 1143 0
21 -22 59 60 -1144 0
-21 22 59 -60 -1144 0
-21 -22 1144 0
-21 60 1144 0
21 22 1144 0
21 -60 1144 0
-59 1144 0
-25 26 59 -60 -1145 0
-25 -26 -59 -60 -1145 0
-26 59 1145 0
26 -59 1145 0
25 1145 0
60 1145 0
25 -26 59 60 -1146 0
-25 26 59 -60 -1146 0
-25 -26 1146 0
-25 60 1146 0
25 26 1146 0
25 -60 1146 0
-59 1146 0
-515 516 1149 -1150 -1147 0
-515 -516 -1149 -1150 -1147 0
-516 1149 1147 0
516 -1149 1147 0
515 1147 0
1150 1147 0
515 -516 1149 1150 -1148 0
-515 516 1149 -1150 -1148 0
-515 -516 1148 0
-515 1150 1148 0
515 516 1148 0
515 -1150 1148 0
-1149 1148 0
-1503 1504 1505 -1506 -1149 0
-1503 -1504 -1505 -1506 -1149 0
-1504 1505 1149 0
1504 -1505 1149 0
1503 1149 0
1506 1149 0
1503 -1504 1505 1506 -1150 0
-1503 1504 1505 -1506 -1150 0
-1503 -1504 1150 0
-1503 1506 1150 0
1503 1504 1150 0
1503 -1506 1150 0
-1505 1150 0
-201 202 515 -516 -1151 0
-201 -202 -515 -516 -1151 0
-202 515 1151 0
202 -515 1151 0
201 1151 0
516 1151 0
201 -202 515 516 -1152 0
-201 202 515 -516 -1152 0
-201 -202 1152 0
-201 516 1152 0
201 202 1152 0
201 -516 1152 0
-515 1152 0
-201 202 787 -788 -1153 0
-201 -202 -787 -788 -1153 0
-202 787 1153 0
202 -787 1153 0
201 1153 0
788 1153 0
201 -202 787 788 -1154 0
-201 202 787 -788 -1154 0
-201 -202 1154 0
-201 788 1154 0
201 202 1154 0
201 -788 1154 0
-787 1154 0
-201 202 203 -204 -1155 0
-201 -202 -203 -204 -1155 0
-202 203 1155 0
202 -203 1155 0
201 1155 0
204 1155 0
201 -202 203 204 -1156 0
-201 202 203 -204 -1156 0
-201 -202 1156 0
-201 204 1156 0
201 202 1156 0
201 -204 1156 0
-203 1156 0
-123 124 1507 -1508 -1157 0
-123 -124 -1507 -1508 -1157 0
-124 1507 1157 0
124 -1507 1157 0
123 1157 0
1508 1157 0
123 -124 1507 1508 -1158 0
-123 124 1507 -1508 -1158 0
-123 -124 1158 0
-123 1508 1158 0
123 124 1158 0
123 -1508 1158 0
-1507 1158 0
-49 50 61 -62 -1159 0
-49 -50 -61 -62 -1159 0
-50 61 1159 0
50 -61 1159 0
49 1159 0
62 1159 0
49 -50 61 62 -1160 0
-49 50 61 -62 -1160 0
-49 -50 1160 0
-49 62 1160 0
49 50 1160 0
49 -62 1160 0
-61 1160 0
-1509 1510 1511 -1512 -1161 0
-1509 -1510 -1511 -1512 -1161 0
-1510 1511 1161 0
1510 -1511 1161 0
1509 1161 0
1512 1161 0
1509 -1510 1511 1512 -1162 0
-1509 1510 1511 -1512 -1162 0
-1509 -1510 1162 0
-1509 1512 1162 0
1509 1510 1162 0
1509 -1512 1162 0
-1511 1162 0
-1513 1514 1515 -1516 -1163 0
-1513 -1514 -1515 -1516 -1163 0
-1514 1515 1163 0
1514 -1515 1163 0
1513 1163 0
1516 1163 0
1513 -1514 1515 1516 -1164 0
-1513 1514 1515 -1516 -1164 0
-1513 -1514 1164 0
-1513 1516 1164 0
1513 1514 1164 0
1513 -1516 1164 0
-1515 1164 0
-197 198 1517 -1518 -1165 0
-197 -198 -1517 -1518 -1165 0
-198 1517 1165 0
198 -1517 1165 0
197 1165 0
1518 1165 0
197 -198 1517 1518 -1166 0
-197 198 1517 -1518 -1166 0
-197 -198 1166 0
-197 1518 1166 0
197 198 1166 0
197 -1518 1166 0
-1517 1166 0
-197 198 1519 -1520 -1167 0
-197 -198 -1519 -1520 -1167 0
-198 1519 1167 0
198 -1519 1167 0
197 1167 0
1520 1167 0
197 -198 1519 1520 -1168 0
-197 198 1519 -1520 -1168 0
-197 -198 1168 0
-197 1520 1168 0
197 198 1168 0
197 -1520 1168 0
-1519 1168 0
-1521 1522 1523 -1524 -1169 0
-1521 -1522 -1523 -1524 -1169 0
-1522 1523 1169 0
1522 -1523 1169 0
1521 1169 0
1524 1169 0
1521 -1522 1523 1524 -1170 0
-1521 1522 1523 -1524 -1170 0
-1521 -1522 1170 0
-1521 1524 1170 0
1521 1522 1170 0
1521 -1524 1170 0
-1523 1170 0
-149 150 515 -516 -1171 0
-149 -150 -515 -516 -1171 0
-150 515 1171 0
150 -515 1171 0
149 1171 0
516 1171 0
149 -150 515 516 -1172 0
-149 150 515 -516 -1172 0
-149 -150 1172 0
-149 516 1172 0
149 150 1172 0
149 -516 1172 0
-515 1172 0
-1529 1530 1535 -1536 -1173 0
-1529 -1530 -1535 -1536 -1173 0
-1530 1535 1173 0
1530 -1535 1173 0
1529 1173 0
1536 1173 0
1529 -1530 1535 1536 -1174 0
-1529 1530 1535 -1536 -1174 0
-1529 -1530 1174 0
-1529 1536 1174 0
1529 1530 1174 0
1529 -1536 1174 0
-1535 1174 0
-27 28 1111 -1112 -1175 0
-27 -28 -1111 -1112 -1175 0
-28 1111 1175 0
28 -1111 1175 0
27 1175 0
1112 1175 0
27 -28 1111 1112 -1176 0
-27 28 1111 -1112 -1176 0
-27 -28 1176 0
-27 1112 1176 0
27 28 1176 0
27 -1112 1176 0
-1111 1176 0
-1541 1542 1547 -1548 -1177 0
-1541 -1542 -1547 -1548 -1177 0
-1542 1547 1177 0
1542 -1547 1177 0
1541 1177 0
1548 1177 0
1541 -1542 1547 1548 -1178 0
-1541 1542 1547 -1548 -1178 0
-1541 -1542 1178 0
-1541 1548 1178 0
1541 1542 1178 0
1541 -1548 1178 0
-1547 1178 0
-1553 1554 1559 -1560 -1179 0
-1553 -1554 -1559 -1560 -1179 0
-1554 1559 1179 0
1554 -1559 1179 0
1553 1179 0
1560 1179 0
1553 -1554 1559 1560 -1180 0
-1553 1554 1559 -1560 -1180 0
-1553 -1554 1180 0
-1553 1560 1180 0
1553 1554 1180 0
1553 -1560 1180 0
-1559 1180 0
-1565 1566 1571 -1572 -1181 0
-1565 -1566 -1571 -1572 -1181 0
-1566 1571 1181 0
1566 -1571 1181 0
1565 1181 0
1572 1181 0
1565 -1566 1571 1572 -1182 0
-1565 1566 1571 -1572 -1182 0
-1565 -1566 1182 0
-1565 1572 1182 0
1565 1566 1182 0
1565 -1572 1182 0
-1571 1182 0
-1577 1578 1583 -1584 -1183 0
-1577 -1578 -1583 -1584 -1183 0
-1578 1583 1183 0
1578 -1583 1183 0
1577 1183 0
1584 1183 0
1577 -1578 1583 1584 -1184 0
-1577 1578 1583 -1584 -1184 0
-1577 -1578 1184 0
-1577 1584 1184 0
1577 1578 1184 0
1577 -1584 1184 0
-1583 1184 0
-167 168 1585 -1586 -1185 0
-167 -168 -1585 -1586 -1185 0
-168 1585 1185 0
168 -1585 1185 0
167 1185 0
1586 1185 0
167 -168 1585 1586 -1186 0
-167 168 1585 -1586 -1186 0
-167 -168 1186 0
-167 1586 1186 0
167 168 1186 0
167 -1586 1186 0
-1585 1186 0
-171 172 195 -196 -1187 0
-171 -172 -195 -196 -1187 0
-172 195 1187 0
172 -195 1187 0
171 1187 0
196 1187 0
171 -172 195 196 -1188 0
-171 172 195 -196 -1188 0
-171 -172 1188 0
-171 196 1188 0
171 172 1188 0
171 -196 1188 0
-195 1188 0
-1591 1592 1597 -1598 -1189 0
-1591 -1592 -1597 -1598 -1189 0
-1592 1597 1189 0
1592 -1597 1189 0
1591 1189 0
1598 1189 0
1591 -1592 1597 1598 -1190 0
-1591 1592 1597 -1598 -1190 0
-1591 -1592 1190 0
-1591 1598 1190 0
1591 1592 1190 0
1591 -1598 1190 0
-1597 1190 0
-1603 1604 1609 -1610 -1191 0
-1603 -1604 -1609 -1610 -1191 0
-1604 1609 1191 0
1604 -1609 1191 0
1603 1191 0
1610 1191 0
1603 -1604 1609 1610 -1192 0
-1603 1604 1609 -1610 -1192 0
-1603 -1604 1192 0
-1603 1610 1192 0
1603 1604 1192 0
1603 -1610 1192 0
-1609 1192 0
-1615 1616 1621 -1622 -1193 0
-1615 -1616 -1621 -1622 -1193 0
-1616 1621 1193 0
1616 -1621 1193 0
1615 1193 0
1622 1193 0
1615 -1616 1621 1622 -1194 0
-1615 1616 1621 -1622 -1194 0
-1615 -1616 1194 0
-1615 1622 1194 0
1615 1616 1194 0
1615 -1622 1194 0
-1621 1194 0
-1623 1624 1629 -1630 -1195 0
-1623 -1624 -1629 -1630 -1195 0
-1624 1629 1195 0
1624 -1629 1195 0
1623 1195 0
1630 1195 0
1623 -1624 1629 1630 -1196 0
-1623 1624 1629 -1630 -1196 0
-1623 -1624 1196 0
-1623 1630 1196 0
1623 1624 1196 0
1623 -1630 1196 0
-1629 1196 0
-1635 1636 1641 -1642 -1197 0
-1635 -1636 -1641 -1642 -1197 0
-1636 1641 1197 0
1636 -1641 1197 0
1635 1197 0
1642 1197 0
1635 -1636 1641 1642 -1198 0
-1635 1636 1641 -1642 -1198 0
-1635 -1636 1198 0
-1635 1642 1198 0
1635 1636 1198 0
1635 -1642 1198 0
-1641 1198 0
-1 2 501 -502 -1199 0
-1 -2 -501 -502 -1199 0
-2 501 1199 0
2 -501 1199 0
1 1199 0
502 1199 0
1 -2 501 502 -1200 0
-1 2 501 -502 -1200 0
-1 -2 1200 0
-1 502 1200 0
1 2 1200 0
1 -502 1200 0
-501 1200 0
-1647 1648 1653 -1654 -1201 0
-1647 -1648 -1653 -1654 -1201 0
-1648 1653 1201 0
1648 -1653 1201 0
1647 1201 0
1654 1201 0
1647 -1648 1653 1654 -1202 0
-1647 1648 1653 -1654 -1202 0
-1647 -1648 1202 0
-1647 1654 1202 0
1647 1648 1202 0
1647 -1654 1202 0
-1653 1202 0
-1659 1660 1663 -1664 -1203 0
-1659 -1660 -1663 -1664 -1203 0
-1660 1663 1203 0
1660 -1663 1203 0
1659 1203 0
1664 1203 0
1659 -1660 1663 1664 -1204 0
-1659 1660 1663 -1664 -1204 0
-1659 -1660 1204 0
-1659 1664 1204 0
1659 1660 1204 0
1659 -1664 1204 0
-1663 1204 0
-1225 1226 1669 -1670 -1205 0
-1225 -1226 -1669 -1670 -1205 0
-1226 1669 1205 0
1226 -1669 1205 0
1225 1205 0
1670 1205 0
1225 -1226 1669 1670 -1206 0
-1225 1226 1669 -1670 -1206 0
-1225 -1226 1206 0
-1225 1670 1206 0
1225 1226 1206 0
1225 -1670 1206 0
-1669 1206 0
-1673 1674 1677 -1678 -1207 0
-1673 -1674 -1677 -1678 -1207 0
-1674 1677 1207 0
1674 -1677 1207 0
1673 1207 0
1678 1207 0
1673 -1674 1677 1678 -1208 0
-1673 1674 1677 -1678 -1208 0
-1673 -1674 1208 0
-1673 1678 1208 0
1673 1674 1208 0
1673 -1678 1208 0
-1677 1208 0
-1655 1656 1683 -1684 -1209 0
-1655 -1656 -1683 -1684 -1209 0
-1656 1683 1209 0
1656 -1683 1209 0
1655 1209 0
1684 1209 0
1655 -1656 1683 1684 -1210 0
-1655 1656 1683 -1684 -1210 0
-1655 -1656 1210 0
-1655 1684 1210 0
1655 1656 1210 0
1655 -1684 1210 0
-1683 1210 0
-1689 1690 1695 -1696 -1211 0
-1689 -1690 -1695 -1696 -1211 0
-1690 1695 1211 0
1690 -1695 1211 0
1689 1211 0
1696 1211 0
1689 -1690 1695 1696 -1212 0
-1689 1690 1695 -1696 -1212 0
-1689 -1690 1212 0
-1689 1696 1212 0
1689 1690 1212 0
1689 -1696 1212 0
-1695 1212 0
-1225 1226 1697 -1698 -1213 0
-1225 -1226 -1697 -1698 -1213 0
-1226 1697 1213 0
1226 -1697 1213 0
1225 1213 0
1698 1213 0
1225 -1226 1697 1698 -1214 0
-1225 1226 1697 -1698 -1214 0
-1225 -1226 1214 0
-1225 1698 1214 0
1225 1226 1214 0
1225 -1698 1214 0
-1697 1214 0
-1701 1702 1705 -1706 -1215 0
-1701 -1702 -1705 -1706 -1215 0
-1702 1705 1215 0
1702 -1705 1215 0
1701 1215 0
1706 1215 0
1701 -1702 1705 1706 -1216 0
-1701 1702 1705 -1706 -1216 0
-1701 -1702 1216 0
-1701 1706 1216 0
1701 1702 1216 0
1701 -1706 1216 0
-1705 1216 0
-1711 1712 1713 -1714 -1217 0
-1711 -1712 -1713 -1714 -1217 0
-1712 1713 1217 0
1712 -1713 1217 0
1711 1217 0
1714 1217 0
1711 -1712 1713 1714 -1218 0
-1711 1712 1713 -1714 -1218 0
-1711 -1712 1218 0
-1711 1714 1218 0
1711 1712 1218 0
1711 -1714 1218 0
-1713 1218 0
-1717 1718 1721 -1722 -1219 0
-1717 -1718 -1721 -1722 -1219 0
-1718 1721 1219 0
1718 -1721 1219 0
1717 1219 0
1722 1219 0
1717 -1718 1721 1722 -1220 0
-1717 1718 1721 -1722 -1220 0
-1717 -1718 1220 0
-1717 1722 1220 0
1717 1718 1220 0
1717 -1722 1220 0
-1721 1220 0
-1711 1712 1725 -1726 -1221 0
-1711 -1712 -1725 -1726 -1221 0
-1712 1725 1221 0
1712 -1725 1221 0
1711 1221 0
1726 1221 0
1711 -1712 1725 1726 -1222 0
-1711 1712 1725 -1726 -1222 0
-1711 -1712 1222 0
-1711 1726 1222 0
1711 1712 1222 0
1711 -1726 1222 0
-1725 1222 0
-1729 1730 1733 -1734 -1223 0
-1729 -1730 -1733 -1734 -1223 0
-1730 1733 1223 0
1730 -1733 1223 0
1729 1223 0
1734 1223 0
1729 -1730 1733 1734 -1224 0
-1729 1730 1733 -1734 -1224 0
-1729 -1730 1224 0
-1729 1734 1224 0
1729 1730 1224 0
1729 -1734 1224 0
-1733 1224 0
-1665 1666 1667 -1668 -1225 0
-1665 -1666 -1667 -1668 -1225 0
-1666 1667 1225 0
1666 -1667 1225 0
1665 1225 0
1668 1225 0
1665 -1666 1667 1668 -1226 0
-1665 1666 1667 -1668 -1226 0
-1665 -1666 1226 0
-1665 1668 1226 0
1665 1666 1226 0
1665 -1668 1226 0
-1667 1226 0
-1723 1724 1743 -1744 -1227 0
-1723 -1724 -1743 -1744 -1227 0
-1724 1743 1227 0
1724 -1743 1227 0
1723 1227 0
1744 1227 0
1723 -1724 1743 1744 -1228 0
-1723 1724 1743 -1744 -1228 0
-1723 -1724 1228 0
-1723 1744 1228 0
1723 1724 1228 0
1723 -1744 1228 0
-1743 1228 0
-1723 1724 1745 -1746 -1229 0
-1723 -1724 -1745 -1746 -1229 0
-1724 1745 1229 0
1724 -1745 1229 0
1723 1229 0
1746 1229 0
1723 -1724 1745 1746 -1230 0
-1723 1724 1745 -1746 -1230 0
-1723 -1724 1230 0
-1723 1746 1230 0
1723 1724 1230 0
1723 -1746 1230 0
-1745 1230 0
-1747 1748 1749 -1750 -1231 0
-1747 -1748 -1749 -1750 -1231 0
-1748 1749 1231 0
1748 -1749 1231 0
1747 1231 0
1750 1231 0
1747 -1748 1749 1750 -1232 0
-1747 1748 1749 -1750 -1232 0
-1747 -1748 1232 0
-1747 1750 1232 0
1747 1748 1232 0
1747 -1750 1232 0
-1749 1232 0
-1723 1724 1751 -1752 -1233 0
-1723 -1724 -1751 -1752 -1233 0
-1724 1751 1233 0
1724 -1751 1233 0
1723 1233 0
1752 1233 0
1723 -1724 1751 1752 -1234 0
-1723 1724 1751 -1752 -1234 0
-1723 -1724 1234 0
-1723 1752 1234 0
1723 1724 1234 0
1723 -1752 1234 0
-1751 1234 0
-1225 1226 1753 -1754 -1235 0
-1225 -1226 -1753 -1754 -1235 0
-1226 1753 1235 0
1226 -1753 1235 0
1225 1235 0
1754 1235 0
1225 -1226 1753 1754 -1236 0
-1225 1226 1753 -1754 -1236 0
-1225 -1226 1236 0
-1225 1754 1236 0
1225 1226 1236 0
1225 -1754 1236 0
-1753 1236 0
-165 166 1225 -1226 -1237 0
-165 -166 -1225 -1226 -1237 0
-166 1225 1237 0
166 -1225 1237 0
165 1237 0
1226 1237 0
165 -166 1225 1226 -1238 0
-165 166 1225 -1226 -1238 0
-165 -166 1238 0
-165 1226 1238 0
165 166 1238 0
165 -1226 1238 0
-1225 1238 0
-113 114 1755 -1756 -1239 0
-113 -114 -1755 -1756 -1239 0
-114 1755 1239 0
114 -1755 1239 0
113 1239 0
1756 1239 0
113 -114 1755 1756 -1240 0
-113 114 1755 -1756 -1240 0
-113 -114 1240 0
-113 1756 1240 0
113 114 1240 0
113 -1756 1240 0
-1755 1240 0
-111 112 113 -114 -1241 0
-111 -112 -113 -114 -1241 0
-112 113 1241 0
112 -113 1241 0
111 1241 0
114 1241 0
111 -112 113 114 -1242 0
-111 112 113 -114 -1242 0
-111 -112 1242 0
-111 114 1242 0
111 112 1242 0
111 -114 1242 0
-113 1242 0
-109 110 111 -112 -1243 0
-109 -110 -111 -112 -1243 0
-110 111 1243 0
110 -111 1243 0
109 1243 0
112 1243 0
109 -110 111 112 -1244 0
-109 110 111 -112 -1244 0
-109 -110 1244 0
-109 112 1244 0
109 110 1244 0
109 -112 1244 0
-111 1244 0
-113 114 179 -180 -1245 0
-113 -114 -179 -180 -1245 0
-114 179 1245 0
114 -179 1245 0
113 1245 0
180 1245 0
113 -114 179 180 -1246 0
-113 114 179 -180 -1246 0
-113 -114 1246 0
-113 180 1246 0
113 114 1246 0
113 -180 1246 0
-179 1246 0
-33 34 1757 -1758 -1247 0
-33 -34 -1757 -1758 -1247 0
-34 1757 1247 0
34 -1757 1247 0
33 1247 0
1758 1247 0
33 -34 1757 1758 -1248 0
-33 34 1757 -1758 -1248 0
-33 -34 1248 0
-33 1758 1248 0
33 34 1248 0
33 -1758 1248 0
-1757 1248 0
-111 112 113 -114 -1249 0
-111 -112 -113 -114 -1249 0
-112 113 1249 0
112 -113 1249 0
111 1249 0
114 1249 0
111 -112 113 114 -1250 0
-111 112 113 -114 -1250 0
-111 -112 1250 0
-111 114 1250 0
111 112 1250 0
111 -114 1250 0
-113 1250 0
-109 110 113 -114 -1251 0
-109 -110 -113 -114 -1251 0
-110 113 1251 0
110 -113 1251 0
109 1251 0
114 1251 0
109 -110 113 114 -1252 0
-109 110 113 -114 -1252 0
-109 -110 1252 0
-109 114 1252 0
109 110 1252 0
109 -114 1252 0
-113 1252 0
-109 110 111 -112 -1253 0
-109 -110 -111 -112 -1253 0
-110 111 1253 0
110 -111 1253 0
109 1253 0
112 1253 0
109 -110 111 112 -1254 0
-109 110 111 -112 -1254 0
-109 -110 1254 0
-109 112 1254 0
109 110 1254 0
109 -112 1254 0
-111 1254 0
-141 142 1759 -1760 -1255 0
-141 -142 -1759 -1760 -1255 0
-142 1759 1255 0
142 -1759 1255 0
141 1255 0
1760 1255 0
141 -142 1759 1760 -1256 0
-141 142 1759 -1760 -1256 0
-141 -142 1256 0
-141 1760 1256 0
141 142 1256 0
141 -1760 1256 0
-1759 1256 0
-1763 1764 1767 -1768 -1257 0
-1763 -1764 -1767 -1768 -1257 0
-1764 1767 1257 0
1764 -1767 1257 0
1763 1257 0
1768 1257 0
1763 -1764 1767 1768 -1258 0
-1763 1764 1767 -1768 -1258 0
-1763 -1764 1258 0
-1763 1768 1258 0
1763 1764 1258 0
1763 -1768 1258 0
-1767 1258 0
-7 8 107 -108 -1259 0
-7 -8 -107 -108 -1259 0
-8 107 1259 0
8 -107 1259 0
7 1259 0
108 1259 0
7 -8 107 108 -1260 0
-7 8 107 -108 -1260 0
-7 -8 1260 0
-7 108 1260 0
7 8 1260 0
7 -108 1260 0
-107 1260 0
-1769 1770 1771 -1772 -1261 0
-1769 -1770 -1771 -1772 -1261 0
-1770 1771 1261 0
1770 -1771 1261 0
1769 1261 0
1772 1261 0
1769 -1770 1771 1772 -1262 0
-1769 1770 1771 -1772 -1262 0
-1769 -1770 1262 0
-1769 1772 1262 0
1769 1770 1262 0
1769 -1772 1262 0
-1771 1262 0
-167 168 169 -170 -1263 0
-167 -168 -169 -170 -1263 0
-168 169 1263 0
168 -169 1263 0
167 1263 0
170 1263 0
167 -168 169 170 -1264 0
-167 168 169 -170 -1264 0
-167 -168 1264 0
-167 170 1264 0
167 168 1264 0
167 -170 1264 0
-169 1264 0
-171 172 179 -180 -1265 0
-171 -172 -179 -180 -1265 0
-172 179 1265 0
172 -179 1265 0
171 1265 0
180 1265 0
171 -172 179 180 -1266 0
-171 172 179 -180 -1266 0
-171 -172 1266 0
-171 180 1266 0
171 172 1266 0
171 -180 1266 0
-179 1266 0
-167 168 171 -172 -1267 0
-167 -168 -171 -172 -1267 0
-168 171 1267 0
168 -171 1267 0
167 1267 0
172 1267 0
167 -168 171 172 -1268 0
-167 168 171 -172 -1268 0
-167 -168 1268 0
-167 172 1268 0
167 168 1268 0
167 -172 1268 0
-171 1268 0
-169 170 171 -172 -1269 0
-169 -170 -171 -172 -1269 0
-170 171 1269 0
170 -171 1269 0
169 1269 0
172 1269 0
169 -170 171 172 -1270 0
-169 170 171 -172 -1270 0
-169 -170 1270 0
-169 172 1270 0
169 170 1270 0
169 -172 1270 0
-171 1270 0
-167 168 179 -180 -1271 0
-167 -168 -179 -180 -1271 0
-168 179 1271 0
168 -179 1271 0
167 1271 0
180 1271 0
167 -168 179 180 -1272 0
-167 168 179 -180 -1272 0
-167 -168 1272 0
-167 180 1272 0
167 168 1272 0
167 -180 1272 0
-179 1272 0
-1773 1774 1775 -1776 -1273 0
-1773 -1774 -1775 -1776 -1273 0
-1774 1775 1273 0
1774 -1775 1273 0
1773 1273 0
1776 1273 0
1773 -1774 1775 1776 -1274 0
-1773 1774 1775 -1776 -1274 0
-1773 -1774 1274 0
-1773 1776 1274 0
1773 1774 1274 0
1773 -1776 1274 0
-1775 1274 0
-167 168 171 -172 -1275 0
-167 -168 -171 -172 -1275 0
-168 171 1275 0
168 -171 1275 0
167 1275 0
172 1275 0
167 -168 171 172 -1276 0
-167 168 171 -172 -1276 0
-167 -168 1276 0
-167 172 1276 0
167 168 1276 0
167 -172 1276 0
-171 1276 0
-171 172 179 -180 -1277 0
-171 -172 -179 -180 -1277 0
-172 179 1277 0
172 -179 1277 0
171 1277 0
180 1277 0
171 -172 179 180 -1278 0
-171 172 179 -180 -1278 0
-171 -172 1278 0
-171 180 1278 0
171 172 1278 0
171 -180 1278 0
-179 1278 0
-1303 1304 1291 -1292 -1279 0
-1303 -1304 -1291 -1292 -1279 0
-1304 1291 1279 0
1304 -1291 1279 0
1303 1279 0
1292 1279 0
1303 -1304 1291 1292 -1280 0
-1303 1304 1291 -1292 -1280 0
-1303 -1304 1280 0
-1303 1292 1280 0
1303 1304 1280 0
1303 -1292 1280 0
-1291 1280 0
-1781 1782 1783 -1784 -1281 0
-1781 -1782 -1783 -1784 -1281 0
-1782 1783 1281 0
1782 -1783 1281 0
1781 1281 0
1784 1281 0
1781 -1782 1783 1784 -1282 0
-1781 1782 1783 -1784 -1282 0
-1781 -1782 1282 0
-1781 1784 1282 0
1781 1782 1282 0
1781 -1784 1282 0
-1783 1282 0
-71 72 987 -988 -1283 0
-71 -72 -987 -988 -1283 0
-72 987 1283 0
72 -987 1283 0
71 1283 0
988 1283 0
71 -72 987 988 -1284 0
-71 72 987 -988 -1284 0
-71 -72 1284 0
-71 988 1284 0
71 72 1284 0
71 -988 1284 0
-987 1284 0
-1785 1786 1787 -1788 -1285 0
-1785 -1786 -1787 -1788 -1285 0
-1786 1787 1285 0
1786 -1787 1285 0
1785 1285 0
1788 1285 0
1785 -1786 1787 1788 -1286 0
-1785 1786 1787 -1788 -1286 0
-1785 -1786 1286 0
-1785 1788 1286 0
1785 1786 1286 0
1785 -1788 1286 0
-1787 1286 0
-235 236 1789 -1790 -1287 0
-235 -236 -1789 -1790 -1287 0
-236 1789 1287 0
236 -1789 1287 0
235 1287 0
1790 1287 0
235 -236 1789 1790 -1288 0
-235 236 1789 -1790 -1288 0
-235 -236 1288 0
-235 1790 1288 0
235 236 1288 0
235 -1790 1288 0
-1789 1288 0
-1303 1304 1291 -1292 -1289 0
-1303 -1304 -1291 -1292 -1289 0
-1304 1291 1289 0
1304 -1291 1289 0
1303 1289 0
1292 1289 0
1303 -1304 1291 1292 -1290 0
-1303 1304 1291 -1292 -1290 0
-1303 -1304 1290 0
-1303 1292 1290 0
1303 1304 1290 0
1303 -1292 1290 0
-1291 1290 0
-1777 1778 1779 -1780 -1291 0
-1777 -1778 -1779 -1780 -1291 0
-1778 1779 1291 0
1778 -1779 1291 0
1777 1291 0
1780 1291 0
1777 -1778 1779 1780 -1292 0
-1777 1778 1779 -1780 -1292 0
-1777 -1778 1292 0
-1777 1780 1292 0
1777 1778 1292 0
1777 -1780 1292 0
-1779 1292 0
-1791 1792 1793 -1794 -1293 0
-1791 -1792 -1793 -1794 -1293 0
-1792 1793 1293 0
1792 -1793 1293 0
1791 1293 0
1794 1293 0
1791 -1792 1793 1794 -1294 0
-1791 1792 1793 -1794 -1294 0
-1791 -1792 1294 0
-1791 1794 1294 0
1791 1792 1294 0
1791 -1794 1294 0
-1793 1294 0
-1795 1796 1797 -1798 -1295 0
-1795 -1796 -1797 -1798 -1295 0
-1796 1797 1295 0
1796 -1797 1295 0
1795 1295 0
1798 1295 0
1795 -1796 1797 1798 -1296 0
-1795 1796 1797 -1798 -1296 0
-1795 -1796 1296 0
-1795 1798 1296 0
1795 1796 1296 0
1795 -1798 1296 0
-1797 1296 0
-65 66 67 -68 -1297 0
-65 -66 -67 -68 -1297 0
-66 67 1297 0
66 -67 1297 0
65 1297 0
68 1297 0
65 -66 67 68 -1298 0
-65 66 67 -68 -1298 0
-65 -66 1298 0
-65 68 1298 0
65 66 1298 0
65 -68 1298 0
-67 1298 0
-91 92 231 -232 -1299 0
-91 -92 -231 -232 -1299 0
-92 231 1299 0
92 -231 1299 0
91 1299 0
232 1299 0
91 -92 231 232 -1300 0
-91 92 231 -232 -1300 0
-91 -92 1300 0
-91 232 1300 0
91 92 1300 0
91 -232 1300 0
-231 1300 0
-175 176 1803 -1804 -1301 0
-175 -176 -1803 -1804 -1301 0
-176 1803 1301 0
176 -1803 1301 0
175 1301 0
1804 1301 0
175 -176 1803 1804 -1302 0
-175 176 1803 -1804 -1302 0
-175 -176 1302 0
-175 1804 1302 0
175 176 1302 0
175 -1804 1302 0
-1803 1302 0
-157 158 1119 -1120 -1303 0
-157 -158 -1119 -1120 -1303 0
-158 1119 1303 0
158 -1119 1303 0
157 1303 0
1120 1303 0
157 -158 1119 1120 -1304 0
-157 158 1119 -1120 -1304 0
-157 -158 1304 0
-157 1120 1304 0
157 158 1304 0
157 -1120 1304 0
-1119 1304 0
-73 74 1805 -1806 -1305 0
-73 -74 -1805 -1806 -1305 0
-74 1805 1305 0
74 -1805 1305 0
73 1305 0
1806 1305 0
73 -74 1805 1806 -1306 0
-73 74 1805 -1806 -1306 0
-73 -74 1306 0
-73 1806 1306 0
73 74 1306 0
73 -1806 1306 0
-1805 1306 0
-67 68 73 -74 -1307 0
-67 -68 -73 -74 -1307 0
-68 73 1307 0
68 -73 1307 0
67 1307 0
74 1307 0
67 -68 73 74 -1308 0
-67 68 73 -74 -1308 0
-67 -68 1308 0
-67 74 1308 0
67 68 1308 0
67 -74 1308 0
-73 1308 0
-73 74 1303 -1304 -1309 0
-73 -74 -1303 -1304 -1309 0
-74 1303 1309 0
74 -1303 1309 0
73 1309 0
1304 1309 0
73 -74 1303 1304 -1310 0
-73 74 1303 -1304 -1310 0
-73 -74 1310 0
-73 1304 1310 0
73 74 1310 0
73 -1304 1310 0
-1303 1310 0
-75 76 1303 -1304 -1311 0
-75 -76 -1303 -1304 -1311 0
-76 1303 1311 0
76 -1303 1311 0
75 1311 0
1304 1311 0
75 -76 1303 1304 -1312 0
-75 76 1303 -1304 -1312 0
-75 -76 1312 0
-75 1304 1312 0
75 76 1312 0
75 -1304 1312 0
-1303 1312 0
-1809 1810 1813 -1814 -1313 0
-1809 -1810 -1813 -1814 -1313 0
-1810 1813 1313 0
1810 -1813 1313 0
1809 1313 0
1814 1313 0
1809 -1810 1813 1814 -1314 0
-1809 1810 1813 -1814 -1314 0
-1809 -1810 1314 0
-1809 1814 1314 0
1809 1810 1314 0
1809 -1814 1314 0
-1813 1314 0
-75 76 89 -90 -1315 0
-75 -76 -89 -90 -1315 0
-76 89 1315 0
76 -89 1315 0
75 1315 0
90 1315 0
75 -76 89 90 -1316 0
-75 76 89 -90 -1316 0
-75 -76 1316 0
-75 90 1316 0
75 76 1316 0
75 -90 1316 0
-89 1316 0
-1817 1818 1819 -1820 -1317 0
-1817 -1818 -1819 -1820 -1317 0
-1818 1819 1317 0
1818 -1819 1317 0
1817 1317 0
1820 1317 0
1817 -1818 1819 1820 -1318 0
-1817 1818 1819 -1820 -1318 0
-1817 -1818 1318 0
-1817 1820 1318 0
1817 1818 1318 0
1817 -1820 1318 0
-1819 1318 0
-1825 1826 1831 -1832 -1319 0
-1825 -1826 -1831 -1832 -1319 0
-1826 1831 1319 0
1826 -1831 1319 0
1825 1319 0
1832 1319 0
1825 -1826 1831 1832 -1320 0
-1825 1826 1831 -1832 -1320 0
-1825 -1826 1320 0
-1825 1832 1320 0
1825 1826 1320 0
1825 -1832 1320 0
-1831 1320 0
-1835 1836 1837 -1838 -1321 0
-1835 -1836 -1837 -1838 -1321 0
-1836 1837 1321 0
1836 -1837 1321 0
1835 1321 0
1838 1321 0
1835 -1836 1837 1838 -1322 0
-1835 1836 1837 -1838 -1322 0
-1835 -1836 1322 0
-1835 1838 1322 0
1835 1836 1322 0
1835 -1838 1322 0
-1837 1322 0
-77 78 989 -990 -1323 0
-77 -78 -989 -990 -1323 0
-78 989 1323 0
78 -989 1323 0
77 1323 0
990 1323 0
77 -78 989 990 -1324 0
-77 78 989 -990 -1324 0
-77 -78 1324 0
-77 990 1324 0
77 78 1324 0
77 -990 1324 0
-989 1324 0
-65 66 91 -92 -1325 0
-65 -66 -91 -92 -1325 0
-66 91 1325 0
66 -91 1325 0
65 1325 0
92 1325 0
65 -66 91 92 -1326 0
-65 66 91 -92 -1326 0
-65 -66 1326 0
-65 92 1326 0
65 66 1326 0
65 -92 1326 0
-91 1326 0
-179 180 739 -740 -1327 0
-179 -180 -739 -740 -1327 0
-180 739 1327 0
180 -739 1327 0
179 1327 0
740 1327 0
179 -180 739 740 -1328 0
-179 180 739 -740 -1328 0
-179 -180 1328 0
-179 740 1328 0
179 180 1328 0
179 -740 1328 0
-739 1328 0
-177 178 1409 -1410 -1329 0
-177 -178 -1409 -1410 -1329 0
-178 1409 1329 0
178 -1409 1329 0
177 1329 0
1410 1329 0
177 -178 1409 1410 -1330 0
-177 178 1409 -1410 -1330 0
-177 -178 1330 0
-177 1410 1330 0
177 178 1330 0
177 -1410 1330 0
-1409 1330 0
-177 178 179 -180 -1331 0
-177 -178 -179 -180 -1331 0
-178 179 1331 0
178 -179 1331 0
177 1331 0
180 1331 0
177 -178 179 180 -1332 0
-177 178 179 -180 -1332 0
-177 -178 1332 0
-177 180 1332 0
177 178 1332 0
177 -180 1332 0
-179 1332 0
-175 176 739 -740 -1333 0
-175 -176 -739 -740 -1333 0
-176 739 1333 0
176 -739 1333 0
175 1333 0
740 1333 0
175 -176 739 740 -1334 0
-175 176 739 -740 -1334 0
-175 -176 1334 0
-175 740 1334 0
175 176 1334 0
175 -740 1334 0
-739 1334 0
-175 176 1803 -1804 -1335 0
-175 -176 -1803 -1804 -1335 0
-176 1803 1335 0
176 -1803 1335 0
175 1335 0
1804 1335 0
175 -176 1803 1804 -1336 0
-175 176 1803 -1804 -1336 0
-175 -176 1336 0
-175 1804 1336 0
175 176 1336 0
175 -1804 1336 0
-1803 1336 0
-65 66 91 -92 -1337 0
-65 -66 -91 -92 -1337 0
-66 91 1337 0
66 -91 1337 0
65 1337 0
92 1337 0
65 -66 91 92 -1338 0
-65 66 91 -92 -1338 0
-65 -66 1338 0
-65 92 1338 0
65 66 1338 0
65 -92 1338 0
-91 1338 0
-61 62 1841 -1842 -1339 0
-61 -62 -1841 -1842 -1339 0
-62 1841 1339 0
62 -1841 1339 0
61 1339 0
1842 1339 0
61 -62 1841 1842 -1340 0
-61 62 1841 -1842 -1340 0
-61 -62 1340 0
-61 1842 1340 0
61 62 1340 0
61 -1842 1340 0
-1841 1340 0
-49 50 79 -80 -1341 0
-49 -50 -79 -80 -1341 0
-50 79 1341 0
50 -79 1341 0
49 1341 0
80 1341 0
49 -50 79 80 -1342 0
-49 50 79 -80 -1342 0
-49 -50 1342 0
-49 80 1342 0
49 50 1342 0
49 -80 1342 0
-79 1342 0
-181 182 189 -190 -1343 0
-181 -182 -189 -190 -1343 0
-182 189 1343 0
182 -189 1343 0
181 1343 0
190 1343 0
181 -182 189 190 -1344 0
-181 182 189 -190 -1344 0
-181 -182 1344 0
-181 190 1344 0
181 182 1344 0
181 -190 1344 0
-189 1344 0
-129 130 181 -182 -1345 0
-129 -130 -181 -182 -1345 0
-130 181 1345 0
130 -181 1345 0
129 1345 0
182 1345 0
129 -130 181 182 -1346 0
-129 130 181 -182 -1346 0
-129 -130 1346 0
-129 182 1346 0
129 130 1346 0
129 -182 1346 0
-181 1346 0
-181 182 189 -190 -1347 0
-181 -182 -189 -190 -1347 0
-182 189 1347 0
182 -189 1347 0
181 1347 0
190 1347 0
181 -182 189 190 -1348 0
-181 182 189 -190 -1348 0
-181 -182 1348 0
-181 190 1348 0
181 182 1348 0
181 -190 1348 0
-189 1348 0
-181 182 187 -188 -1349 0
-181 -182 -187 -188 -1349 0
-182 187 1349 0
182 -187 1349 0
181 1349 0
188 1349 0
181 -182 187 188 -1350 0
-181 182 187 -188 -1350 0
-181 -182 1350 0
-181 188 1350 0
181 182 1350 0
181 -188 1350 0
-187 1350 0
-1173 1174 1847 -1848 -1351 0
-1173 -1174 -1847 -1848 -1351 0
-1174 1847 1351 0
1174 -1847 1351 0
1173 1351 0
1848 1351 0
1173 -1174 1847 1848 -1352 0
-1173 1174 1847 -1848 -1352 0
-1173 -1174 1352 0
-1173 1848 1352 0
1173 1174 1352 0
1173 -1848 1352 0
-1847 1352 0
-1351 1352 1849 -1850 -1353 0
-1351 -1352 -1849 -1850 -1353 0
-1352 1849 1353 0
1352 -1849 1353 0
1351 1353 0
1850 1353 0
1351 -1352 1849 1850 -1354 0
-1351 1352 1849 -1850 -1354 0
-1351 -1352 1354 0
-1351 1850 1354 0
1351 1352 1354 0
1351 -1850 1354 0
-1849 1354 0
-1351 1352 1851 -1852 -1355 0
-1351 -1352 -1851 -1852 -1355 0
-1352 1851 1355 0
1352 -1851 1355 0
1351 1355 0
1852 1355 0
1351 -1352 1851 1852 -1356 0
-1351 1352 1851 -1852 -1356 0
-1351 -1352 1356 0
-1351 1852 1356 0
1351 1352 1356 0
1351 -1852 1356 0
-1851 1356 0
-1469 1470 1853 -1854 -1357 0
-1469 -1470 -1853 -1854 -1357 0
-1470 1853 1357 0
1470 -1853 1357 0
1469 1357 0
1854 1357 0
1469 -1470 1853 1854 -1358 0
-1469 1470 1853 -1854 -1358 0
-1469 -1470 1358 0
-1469 1854 1358 0
1469 1470 1358 0
1469 -1854 1358 0
-1853 1358 0
-1469 1470 1855 -1856 -1359 0
-1469 -1470 -1855 -1856 -1359 0
-1470 1855 1359 0
1470 -1855 1359 0
1469 1359 0
1856 1359 0
1469 -1470 1855 1856 -1360 0
-1469 1470 1855 -1856 -1360 0
-1469 -1470 1360 0
-1469 1856 1360 0
1469 1470 1360 0
1469 -1856 1360 0
-1855 1360 0
-1469 1470 1857 -1858 -1361 0
-1469 -1470 -1857 -1858 -1361 0
-1470 1857 1361 0
1470 -1857 1361 0
1469 1361 0
1858 1361 0
1469 -1470 1857 1858 -1362 0
-1469 1470 1857 -1858 -1362 0
-1469 -1470 1362 0
-1469 1858 1362 0
1469 1470 1362 0
1469 -1858 1362 0
-1857 1362 0
-225 226 1859 -1860 -1363 0
-225 -226 -1859 -1860 -1363 0
-226 1859 1363 0
226 -1859 1363 0
225 1363 0
1860 1363 0
225 -226 1859 1860 -1364 0
-225 226 1859 -1860 -1364 0
-225 -226 1364 0
-225 1860 1364 0
225 226 1364 0
225 -1860 1364 0
-1859 1364 0
-223 224 1861 -1862 -1365 0
-223 -224 -1861 -1862 -1365 0
-224 1861 1365 0
224 -1861 1365 0
223 1365 0
1862 1365 0
223 -224 1861 1862 -1366 0
-223 224 1861 -1862 -1366 0
-223 -224 1366 0
-223 1862 1366 0
223 224 1366 0
223 -1862 1366 0
-1861 1366 0
-177 178 187 -188 -1367 0
-177 -178 -187 -188 -1367 0
-178 187 1367 0
178 -187 1367 0
177 1367 0
188 1367 0
177 -178 187 188 -1368 0
-177 178 187 -188 -1368 0
-177 -178 1368 0
-177 188 1368 0
177 178 1368 0
177 -188 1368 0
-187 1368 0
-77 78 177 -178 -1369 0
-77 -78 -177 -178 -1369 0
-78 177 1369 0
78 -177 1369 0
77 1369 0
178 1369 0
77 -78 177 178 -1370 0
-77 78 177 -178 -1370 0
-77 -78 1370 0
-77 178 1370 0
77 78 1370 0
77 -178 1370 0
-177 1370 0
-223 224 1867 -1868 -1371 0
-223 -224 -1867 -1868 -1371 0
-224 1867 1371 0
224 -1867 1371 0
223 1371 0
1868 1371 0
223 -224 1867 1868 -1372 0
-223 224 1867 -1868 -1372 0
-223 -224 1372 0
-223 1868 1372 0
223 224 1372 0
223 -1868 1372 0
-1867 1372 0
-67 68 91 -92 -1373 0
-67 -68 -91 -92 -1373 0
-68 91 1373 0
68 -91 1373 0
67 1373 0
92 1373 0
67 -68 91 92 -1374 0
-67 68 91 -92 -1374 0
-67 -68 1374 0
-67 92 1374 0
67 68 1374 0
67 -92 1374 0
-91 1374 0
-1805 1806 1401 -1402 -1375 0
-1805 -1806 -1401 -1402 -1375 0
-1806 1401 1375 0
1806 -1401 1375 0
1805 1375 0
1402 1375 0
1805 -1806 1401 1402 -1376 0
-1805 1806 1401 -1402 -1376 0
-1805 -1806 1376 0
-1805 1402 1376 0
1805 1806 1376 0
1805 -1402 1376 0
-1401 1376 0
-1867 1868 1873 -1874 -1377 0
-1867 -1868 -1873 -1874 -1377 0
-1868 1873 1377 0
1868 -1873 1377 0
1867 1377 0
1874 1377 0
1867 -1868 1873 1874 -1378 0
-1867 1868 1873 -1874 -1378 0
-1867 -1868 1378 0
-1867 1874 1378 0
1867 1868 1378 0
1867 -1874 1378 0
-1873 1378 0
-225 226 1867 -1868 -1379 0
-225 -226 -1867 -1868 -1379 0
-226 1867 1379 0
226 -1867 1379 0
225 1379 0
1868 1379 0
225 -226 1867 1868 -1380 0
-225 226 1867 -1868 -1380 0
-225 -226 1380 0
-225 1868 1380 0
225 226 1380 0
225 -1868 1380 0
-1867 1380 0
-1879 1880 1881 -1882 -1381 0
-1879 -1880 -1881 -1882 -1381 0
-1880 1881 1381 0
1880 -1881 1381 0
1879 1381 0
1882 1381 0
1879 -1880 1881 1882 -1382 0
-1879 1880 1881 -1882 -1382 0
-1879 -1880 1382 0
-1879 1882 1382 0
1879 1880 1382 0
1879 -1882 1382 0
-1881 1382 0
-1885 1886 1889 -1890 -1383 0
-1885 -1886 -1889 -1890 -1383 0
-1886 1889 1383 0
1886 -1889 1383 0
1885 1383 0
1890 1383 0
1885 -1886 1889 1890 -1384 0
-1885 1886 1889 -1890 -1384 0
-1885 -1886 1384 0
-1885 1890 1384 0
1885 1886 1384 0
1885 -1890 1384 0
-1889 1384 0
-1879 1880 1891 -1892 -1385 0
-1879 -1880 -1891 -1892 -1385 0
-1880 1891 1385 0
1880 -1891 1385 0
1879 1385 0
1892 1385 0
1879 -1880 1891 1892 -1386 0
-1879 1880 1891 -1892 -1386 0
-1879 -1880 1386 0
-1879 1892 1386 0
1879 1880 1386 0
1879 -1892 1386 0
-1891 1386 0
-1897 1898 1899 -1900 -1387 0
-1897 -1898 -1899 -1900 -1387 0
-1898 1899 1387 0
1898 -1899 1387 0
1897 1387 0
1900 1387 0
1897 -1898 1899 1900 -1388 0
-1897 1898 1899 -1900 -1388 0
-1897 -1898 1388 0
-1897 1900 1388 0
1897 1898 1388 0
1897 -1900 1388 0
-1899 1388 0
-1905 1906 1911 -1912 -1389 0
-1905 -1906 -1911 -1912 -1389 0
-1906 1911 1389 0
1906 -1911 1389 0
1905 1389 0
1912 1389 0
1905 -1906 1911 1912 -1390 0
-1905 1906 1911 -1912 -1390 0
-1905 -1906 1390 0
-1905 1912 1390 0
1905 1906 1390 0
1905 -1912 1390 0
-1911 1390 0
-1917 1918 1923 -1924 -1391 0
-1917 -1918 -1923 -1924 -1391 0
-1918 1923 1391 0
1918 -1923 1391 0
1917 1391 0
1924 1391 0
1917 -1918 1923 1924 -1392 0
-1917 1918 1923 -1924 -1392 0
-1917 -1918 1392 0
-1917 1924 1392 0
1917 1918 1392 0
1917 -1924 1392 0
-1923 1392 0
-1929 1930 1935 -1936 -1393 0
-1929 -1930 -1935 -1936 -1393 0
-1930 1935 1393 0
1930 -1935 1393 0
1929 1393 0
1936 1393 0
1929 -1930 1935 1936 -1394 0
-1929 1930 1935 -1936 -1394 0
-1929 -1930 1394 0
-1929 1936 1394 0
1929 1930 1394 0
1929 -1936 1394 0
-1935 1394 0
-1937 1938 1943 -1944 -1395 0
-1937 -1938 -1943 -1944 -1395 0
-1938 1943 1395 0
1938 -1943 1395 0
1937 1395 0
1944 1395 0
1937 -1938 1943 1944 -1396 0
-1937 1938 1943 -1944 -1396 0
-1937 -1938 1396 0
-1937 1944 1396 0
1937 1938 1396 0
1937 -1944 1396 0
-1943 1396 0
-1945 1946 1947 -1948 -1397 0
-1945 -1946 -1947 -1948 -1397 0
-1946 1947 1397 0
1946 -1947 1397 0
1945 1397 0
1948 1397 0
1945 -1946 1947 1948 -1398 0
-1945 1946 1947 -1948 -1398 0
-1945 -1946 1398 0
-1945 1948 1398 0
1945 1946 1398 0
1945 -1948 1398 0
-1947 1398 0
-211 212 1401 -1402 -1399 0
-211 -212 -1401 -1402 -1399 0
-212 1401 1399 0
212 -1401 1399 0
211 1399 0
1402 1399 0
211 -212 1401 1402 -1400 0
-211 212 1401 -1402 -1400 0
-211 -212 1400 0
-211 1402 1400 0
211 212 1400 0
211 -1402 1400 0
-1401 1400 0
-1869 1870 1871 -1872 -1401 0
-1869 -1870 -1871 -1872 -1401 0
-1870 1871 1401 0
1870 -1871 1401 0
1869 1401 0
1872 1401 0
1869 -1870 1871 1872 -1402 0
-1869 1870 1871 -1872 -1402 0
-1869 -1870 1402 0
-1869 1872 1402 0
1869 1870 1402 0
1869 -1872 1402 0
-1871 1402 0
-1957 1958 1959 -1960 -1403 0
-1957 -1958 -1959 -1960 -1403 0
-1958 1959 1403 0
1958 -1959 1403 0
1957 1403 0
1960 1403 0
1957 -1958 1959 1960 -1404 0
-1957 1958 1959 -1960 -1404 0
-1957 -1958 1404 0
-1957 1960 1404 0
1957 1958 1404 0
1957 -1960 1404 0
-1959 1404 0
-1961 1962 1963 -1964 -1405 0
-1961 -1962 -1963 -1964 -1405 0
-1962 1963 1405 0
1962 -1963 1405 0
1961 1405 0
1964 1405 0
1961 -1962 1963 1964 -1406 0
-1961 1962 1963 -1964 -1406 0
-1961 -1962 1406 0
-1961 1964 1406 0
1961 1962 1406 0
1961 -1964 1406 0
-1963 1406 0
-81 82 215 -216 -1407 0
-81 -82 -215 -216 -1407 0
-82 215 1407 0
82 -215 1407 0
81 1407 0
216 1407 0
81 -82 215 216 -1408 0
-81 82 215 -216 -1408 0
-81 -82 1408 0
-81 216 1408 0
81 82 1408 0
81 -216 1408 0
-215 1408 0
-33 34 1839 -1840 -1409 0
-33 -34 -1839 -1840 -1409 0
-34 1839 1409 0
34 -1839 1409 0
33 1409 0
1840 1409 0
33 -34 1839 1840 -1410 0
-33 34 1839 -1840 -1410 0
-33 -34 1410 0
-33 1840 1410 0
33 34 1410 0
33 -1840 1410 0
-1839 1410 0
-177 178 179 -180 -1411 0
-177 -178 -179 -180 -1411 0
-178 179 1411 0
178 -179 1411 0
177 1411 0
180 1411 0
177 -178 179 180 -1412 0
-177 178 179 -180 -1412 0
-177 -178 1412 0
-177 180 1412 0
177 178 1412 0
177 -180 1412 0
-179 1412 0
-1965 1966 1967 -1968 -1413 0
-1965 -1966 -1967 -1968 -1413 0
-1966 1967 1413 0
1966 -1967 1413 0
1965 1413 0
1968 1413 0
1965 -1966 1967 1968 -1414 0
-1965 1966 1967 -1968 -1414 0
-1965 -1966 1414 0
-1965 1968 1414 0
1965 1966 1414 0
1965 -1968 1414 0
-1967 1414 0
-1969 1970 1971 -1972 -1415 0
-1969 -1970 -1971 -1972 -1415 0
-1970 1971 1415 0
1970 -1971 1415 0
1969 1415 0
1972 1415 0
1969 -1970 1971 1972 -1416 0
-1969 1970 1971 -1972 -1416 0
-1969 -1970 1416 0
-1969 1972 1416 0
1969 1970 1416 0
1969 -1972 1416 0
-1971 1416 0
-1973 1974 1975 -1976 -1417 0
-1973 -1974 -1975 -1976 -1417 0
-1974 1975 1417 0
1974 -1975 1417 0
1973 1417 0
1976 1417 0
1973 -1974 1975 1976 -1418 0
-1973 1974 1975 -1976 -1418 0
-1973 -1974 1418 0
-1973 1976 1418 0
1973 1974 1418 0
1973 -1976 1418 0
-1975 1418 0
-1977 1978 1979 -1980 -1419 0
-1977 -1978 -1979 -1980 -1419 0
-1978 1979 1419 0
1978 -1979 1419 0
1977 1419 0
1980 1419 0
1977 -1978 1979 1980 -1420 0
-1977 1978 1979 -1980 -1420 0
-1977 -1978 1420 0
-1977 1980 1420 0
1977 1978 1420 0
1977 -1980 1420 0
-1979 1420 0
-1981 1982 1985 -1986 -1421 0
-1981 -1982 -1985 -1986 -1421 0
-1982 1985 1421 0
1982 -1985 1421 0
1981 1421 0
1986 1421 0
1981 -1982 1985 1986 -1422 0
-1981 1982 1985 -1986 -1422 0
-1981 -1982 1422 0
-1981 1986 1422 0
1981 1982 1422 0
1981 -1986 1422 0
-1985 1422 0
-1987 1988 1989 -1990 -1423 0
-1987 -1988 -1989 -1990 -1423 0
-1988 1989 1423 0
1988 -1989 1423 0
1987 1423 0
1990 1423 0
1987 -1988 1989 1990 -1424 0
-1987 1988 1989 -1990 -1424 0
-1987 -1988 1424 0
-1987 1990 1424 0
1987 1988 1424 0
1987 -1990 1424 0
-1989 1424 0
-1983 1984 1995 -1996 -1425 0
-1983 -1984 -1995 -1996 -1425 0
-1984 1995 1425 0
1984 -1995 1425 0
1983 1425 0
1996 1425 0
1983 -1984 1995 1996 -1426 0
-1983 1984 1995 -1996 -1426 0
-1983 -1984 1426 0
-1983 1996 1426 0
1983 1984 1426 0
1983 -1996 1426 0
-1995 1426 0
-1983 1984 1997 -1998 -1427 0
-1983 -1984 -1997 -1998 -1427 0
-1984 1997 1427 0
1984 -1997 1427 0
1983 1427 0
1998 1427 0
1983 -1984 1997 1998 -1428 0
-1983 1984 1997 -1998 -1428 0
-1983 -1984 1428 0
-1983 1998 1428 0
1983 1984 1428 0
1983 -1998 1428 0
-1997 1428 0
-2003 2004 2009 -2010 -1429 0
-2003 -2004 -2009 -2010 -1429 0
-2004 2009 1429 0
2004 -2009 1429 0
2003 1429 0
2010 1429 0
2003 -2004 2009 2010 -1430 0
-2003 2004 2009 -2010 -1430 0
-2003 -2004 1430 0
-2003 2010 1430 0
2003 2004 1430 0
2003 -2010 1430 0
-2009 1430 0
-2015 2016 2021 -2022 -1431 0
-2015 -2016 -2021 -2022 -1431 0
-2016 2021 1431 0
2016 -2021 1431 0
2015 1431 0
2022 1431 0
2015 -2016 2021 2022 -1432 0
-2015 2016 2021 -2022 -1432 0
-2015 -2016 1432 0
-2015 2022 1432 0
2015 2016 1432 0
2015 -2022 1432 0
-2021 1432 0
-2025 2026 2031 -2032 -1433 0
-2025 -2026 -2031 -2032 -1433 0
-2026 2031 1433 0
2026 -2031 1433 0
2025 1433 0
2032 1433 0
2025 -2026 2031 2032 -1434 0
-2025 2026 2031 -2032 -1434 0
-2025 -2026 1434 0
-2025 2032 1434 0
2025 2026 1434 0
2025 -2032 1434 0
-2031 1434 0
-2035 2036 2041 -2042 -1435 0
-2035 -2036 -2041 -2042 -1435 0
-2036 2041 1435 0
2036 -2041 1435 0
2035 1435 0
2042 1435 0
2035 -2036 2041 2042 -1436 0
-2035 2036 2041 -2042 -1436 0
-2035 -2036 1436 0
-2035 2042 1436 0
2035 2036 1436 0
2035 -2042 1436 0
-2041 1436 0
-231 232 257 -258 -1437 0
-231 -232 -257 -258 -1437 0
-232 257 1437 0
232 -257 1437 0
231 1437 0
258 1437 0
231 -232 257 258 -1438 0
-231 232 257 -258 -1438 0
-231 -232 1438 0
-231 258 1438 0
231 232 1438 0
231 -258 1438 0
-257 1438 0
-259 260 783 -784 -1439 0
-259 -260 -783 -784 -1439 0
-260 783 1439 0
260 -783 1439 0
259 1439 0
784 1439 0
259 -260 783 784 -1440 0
-259 260 783 -784 -1440 0
-259 -260 1440 0
-259 784 1440 0
259 260 1440 0
259 -784 1440 0
-783 1440 0
-37 38 257 -258 -1441 0
-37 -38 -257 -258 -1441 0
-38 257 1441 0
38 -257 1441 0
37 1441 0
258 1441 0
37 -38 257 258 -1442 0
-37 38 257 -258 -1442 0
-37 -38 1442 0
-37 258 1442 0
37 38 1442 0
37 -258 1442 0
-257 1442 0
-259 260 783 -784 -1443 0
-259 -260 -783 -784 -1443 0
-260 783 1443 0
260 -783 1443 0
259 1443 0
784 1443 0
259 -260 783 784 -1444 0
-259 260 783 -784 -1444 0
-259 -260 1444 0
-259 784 1444 0
259 260 1444 0
259 -784 1444 0
-783 1444 0
-181 182 189 -190 -1445 0
-181 -182 -189 -190 -1445 0
-182 189 1445 0
182 -189 1445 0
181 1445 0
190 1445 0
181 -182 189 190 -1446 0
-181 182 189 -190 -1446 0
-181 -182 1446 0
-181 190 1446 0
181 182 1446 0
181 -190 1446 0
-189 1446 0
-181 182 187 -188 -1447 0
-181 -182 -187 -188 -1447 0
-182 187 1447 0
182 -187 1447 0
181 1447 0
188 1447 0
181 -182 187 188 -1448 0
-181 182 187 -188 -1448 0
-181 -182 1448 0
-181 188 1448 0
181 182 1448 0
181 -188 1448 0
-187 1448 0
-2043 2044 2049 -2050 -1449 0
-2043 -2044 -2049 -2050 -1449 0
-2044 2049 1449 0
2044 -2049 1449 0
2043 1449 0
2050 1449 0
2043 -2044 2049 2050 -1450 0
-2043 2044 2049 -2050 -1450 0
-2043 -2044 1450 0
-2043 2050 1450 0
2043 2044 1450 0
2043 -2050 1450 0
-2049 1450 0
-1449 1450 2051 -2052 -1451 0
-1449 -1450 -2051 -2052 -1451 0
-1450 2051 1451 0
1450 -2051 1451 0
1449 1451 0
2052 1451 0
1449 -1450 2051 2052 -1452 0
-1449 1450 2051 -2052 -1452 0
-1449 -1450 1452 0
-1449 2052 1452 0
1449 1450 1452 0
1449 -2052 1452 0
-2051 1452 0
-1449 1450 2053 -2054 -1453 0
-1449 -1450 -2053 -2054 -1453 0
-1450 2053 1453 0
1450 -2053 1453 0
1449 1453 0
2054 1453 0
1449 -1450 2053 2054 -1454 0
-1449 1450 2053 -2054 -1454 0
-1449 -1450 1454 0
-1449 2054 1454 0
1449 1450 1454 0
1449 -2054 1454 0
-2053 1454 0
-201 202 1149 -1150 -1455 0
-201 -202 -1149 -1150 -1455 0
-202 1149 1455 0
202 -1149 1455 0
201 1455 0
1150 1455 0
201 -202 1149 1150 -1456 0
-201 202 1149 -1150 -1456 0
-201 -202 1456 0
-201 1150 1456 0
201 202 1456 0
201 -1150 1456 0
-1149 1456 0
-203 204 515 -516 -1457 0
-203 -204 -515 -516 -1457 0
-204 515 1457 0
204 -515 1457 0
203 1457 0
516 1457 0
203 -204 515 516 -1458 0
-203 204 515 -516 -1458 0
-203 -204 1458 0
-203 516 1458 0
203 204 1458 0
203 -516 1458 0
-515 1458 0
-151 152 153 -154 -1459 0
-151 -152 -153 -154 -1459 0
-152 153 1459 0
152 -153 1459 0
151 1459 0
154 1459 0
151 -152 153 154 -1460 0
-151 152 153 -154 -1460 0
-151 -152 1460 0
-151 154 1460 0
151 152 1460 0
151 -154 1460 0
-153 1460 0
-197 198 1225 -1226 -1461 0
-197 -198 -1225 -1226 -1461 0
-198 1225 1461 0
198 -1225 1461 0
197 1461 0
1226 1461 0
197 -198 1225 1226 -1462 0
-197 198 1225 -1226 -1462 0
-197 -198 1462 0
-197 1226 1462 0
197 198 1462 0
197 -1226 1462 0
-1225 1462 0
-37 38 231 -232 -1463 0
-37 -38 -231 -232 -1463 0
-38 231 1463 0
38 -231 1463 0
37 1463 0
232 1463 0
37 -38 231 232 -1464 0
-37 38 231 -232 -1464 0
-37 -38 1464 0
-37 232 1464 0
37 38 1464 0
37 -232 1464 0
-231 1464 0
-787 788 2055 -2056 -1465 0
-787 -788 -2055 -2056 -1465 0
-788 2055 1465 0
788 -2055 1465 0
787 1465 0
2056 1465 0
787 -788 2055 2056 -1466 0
-787 788 2055 -2056 -1466 0
-787 -788 1466 0
-787 2056 1466 0
787 788 1466 0
787 -2056 1466 0
-2055 1466 0
-2057 2058 2059 -2060 -1467 0
-2057 -2058 -2059 -2060 -1467 0
-2058 2059 1467 0
2058 -2059 1467 0
2057 1467 0
2060 1467 0
2057 -2058 2059 2060 -1468 0
-2057 2058 2059 -2060 -1468 0
-2057 -2058 1468 0
-2057 2060 1468 0
2057 2058 1468 0
2057 -2060 1468 0
-2059 1468 0
-139 140 1197 -1198 -1469 0
-139 -140 -1197 -1198 -1469 0
-140 1197 1469 0
140 -1197 1469 0
139 1469 0
1198 1469 0
139 -140 1197 1198 -1470 0
-139 140 1197 -1198 -1470 0
-139 -140 1470 0
-139 1198 1470 0
139 140 1470 0
139 -1198 1470 0
-1197 1470 0
-235 236 237 -238 -1471 0
-235 -236 -237 -238 -1471 0
-236 237 1471 0
236 -237 1471 0
235 1471 0
238 1471 0
235 -236 237 238 -1472 0
-235 236 237 -238 -1472 0
-235 -236 1472 0
-235 238 1472 0
235 236 1472 0
235 -238 1472 0
-237 1472 0
-131 132 787 -788 -1473 0
-131 -132 -787 -788 -1473 0
-132 787 1473 0
132 -787 1473 0
131 1473 0
788 1473 0
131 -132 787 788 -1474 0
-131 132 787 -788 -1474 0
-131 -132 1474 0
-131 788 1474 0
131 132 1474 0
131 -788 1474 0
-787 1474 0
-131 132 159 -160 -1475 0
-131 -132 -159 -160 -1475 0
-132 159 1475 0
132 -159 1475 0
131 1475 0
160 1475 0
131 -132 159 160 -1476 0
-131 132 159 -160 -1476 0
-131 -132 1476 0
-131 160 1476 0
131 132 1476 0
131 -160 1476 0
-159 1476 0
-131 132 141 -142 -1477 0
-131 -132 -141 -142 -1477 0
-132 141 1477 0
132 -141 1477 0
131 1477 0
142 1477 0
131 -132 141 142 -1478 0
-131 132 141 -142 -1478 0
-131 -132 1478 0
-131 142 1478 0
131 132 1478 0
131 -142 1478 0
-141 1478 0
-131 132 139 -140 -1479 0
-131 -132 -139 -140 -1479 0
-132 139 1479 0
132 -139 1479 0
131 1479 0
140 1479 0
131 -132 139 140 -1480 0
-131 132 139 -140 -1480 0
-131 -132 1480 0
-131 140 1480 0
131 132 1480 0
131 -140 1480 0
-139 1480 0
-2065 2066 2071 -2072 -1481 0
-2065 -2066 -2071 -2072 -1481 0
-2066 2071 1481 0
2066 -2071 1481 0
2065 1481 0
2072 1481 0
2065 -2066 2071 2072 -1482 0
-2065 2066 2071 -2072 -1482 0
-2065 -2066 1482 0
-2065 2072 1482 0
2065 2066 1482 0
2065 -2072 1482 0
-2071 1482 0
-2077 2078 2083 -2084 -1483 0
-2077 -2078 -2083 -2084 -1483 0
-2078 2083 1483 0
2078 -2083 1483 0
2077 1483 0
2084 1483 0
2077 -2078 2083 2084 -1484 0
-2077 2078 2083 -2084 -1484 0
-2077 -2078 1484 0
-2077 2084 1484 0
2077 2078 1484 0
2077 -2084 1484 0
-2083 1484 0
-2089 2090 2095 -2096 -1485 0
-2089 -2090 -2095 -2096 -1485 0
-2090 2095 1485 0
2090 -2095 1485 0
2089 1485 0
2096 1485 0
2089 -2090 2095 2096 -1486 0
-2089 2090 2095 -2096 -1486 0
-2089 -2090 1486 0
-2089 2096 1486 0
2089 2090 1486 0
2089 -2096 1486 0
-2095 1486 0
-2101 2102 2107 -2108 -1487 0
-2101 -2102 -2107 -2108 -1487 0
-2102 2107 1487 0
2102 -2107 1487 0
2101 1487 0
2108 1487 0
2101 -2102 2107 2108 -1488 0
-2101 2102 2107 -2108 -1488 0
-2101 -2102 1488 0
-2101 2108 1488 0
2101 2102 1488 0
2101 -2108 1488 0
-2107 1488 0
-141 142 267 -268 -1489 0
-141 -142 -267 -268 -1489 0
-142 267 1489 0
142 -267 1489 0
141 1489 0
268 1489 0
141 -142 267 268 -1490 0
-141 142 267 -268 -1490 0
-141 -142 1490 0
-141 268 1490 0
141 142 1490 0
141 -268 1490 0
-267 1490 0
-141 142 1147 -1148 -1491 0
-141 -142 -1147 -1148 -1491 0
-142 1147 1491 0
142 -1147 1491 0
141 1491 0
1148 1491 0
141 -142 1147 1148 -1492 0
-141 142 1147 -1148 -1492 0
-141 -142 1492 0
-141 1148 1492 0
141 142 1492 0
141 -1148 1492 0
-1147 1492 0
-139 140 141 -142 -1493 0
-139 -140 -141 -142 -1493 0
-140 141 1493 0
140 -141 1493 0
139 1493 0
142 1493 0
139 -140 141 142 -1494 0
-139 140 141 -142 -1494 0
-139 -140 1494 0
-139 142 1494 0
139 140 1494 0
139 -142 1494 0
-141 1494 0
-267 268 2109 -2110 -1495 0
-267 -268 -2109 -2110 -1495 0
-268 2109 1495 0
268 -2109 1495 0
267 1495 0
2110 1495 0
267 -268 2109 2110 -1496 0
-267 268 2109 -2110 -1496 0
-267 -268 1496 0
-267 2110 1496 0
267 268 1496 0
267 -2110 1496 0
-2109 1496 0
-1147 1148 2111 -2112 -1497 0
-1147 -1148 -2111 -2112 -1497 0
-1148 2111 1497 0
1148 -2111 1497 0
1147 1497 0
2112 1497 0
1147 -1148 2111 2112 -1498 0
-1147 1148 2111 -2112 -1498 0
-1147 -1148 1498 0
-1147 2112 1498 0
1147 1148 1498 0
1147 -2112 1498 0
-2111 1498 0
-35 36 239 -240 -1499 0
-35 -36 -239 -240 -1499 0
-36 239 1499 0
36 -239 1499 0
35 1499 0
240 1499 0
35 -36 239 240 -1500 0
-35 36 239 -240 -1500 0
-35 -36 1500 0
-35 240 1500 0
35 36 1500 0
35 -240 1500 0
-239 1500 0
-35 36 229 -230 -1501 0
-35 -36 -229 -230 -1501 0
-36 229 1501 0
36 -229 1501 0
35 1501 0
230 1501 0
35 -36 229 230 -1502 0
-35 36 229 -230 -1502 0
-35 -36 1502 0
-35 230 1502 0
35 36 1502 0
35 -230 1502 0
-229 1502 0
-2113 2114 2115 -2116 -1503 0
-2113 -2114 -2115 -2116 -1503 0
-2114 2115 1503 0
2114 -2115 1503 0
2113 1503 0
2116 1503 0
2113 -2114 2115 2116 -1504 0
-2113 2114 2115 -2116 -1504 0
-2113 -2114 1504 0
-2113 2116 1504 0
2113 2114 1504 0
2113 -2116 1504 0
-2115 1504 0
-2117 2118 2119 -2120 -1505 0
-2117 -2118 -2119 -2120 -1505 0
-2118 2119 1505 0
2118 -2119 1505 0
2117 1505 0
2120 1505 0
2117 -2118 2119 2120 -1506 0
-2117 2118 2119 -2120 -1506 0
-2117 -2118 1506 0
-2117 2120 1506 0
2117 2118 1506 0
2117 -2120 1506 0
-2119 1506 0
-47 48 49 -50 -1507 0
-47 -48 -49 -50 -1507 0
-48 49 1507 0
48 -49 1507 0
47 1507 0
50 1507 0
47 -48 49 50 -1508 0
-47 48 49 -50 -1508 0
-47 -48 1508 0
-47 50 1508 0
47 48 1508 0
47 -50 1508 0
-49 1508 0
-65 66 67 -68 -1509 0
-65 -66 -67 -68 -1509 0
-66 67 1509 0
66 -67 1509 0
65 1509 0
68 1509 0
65 -66 67 68 -1510 0
-65 66 67 -68 -1510 0
-65 -66 1510 0
-65 68 1510 0
65 66 1510 0
65 -68 1510 0
-67 1510 0
-89 90 197 -198 -1511 0
-89 -90 -197 -198 -1511 0
-90 197 1511 0
90 -197 1511 0
89 1511 0
198 1511 0
89 -90 197 198 -1512 0
-89 90 197 -198 -1512 0
-89 -90 1512 0
-89 198 1512 0
89 90 1512 0
89 -198 1512 0
-197 1512 0
-39 40 41 -42 -1513 0
-39 -40 -41 -42 -1513 0
-40 41 1513 0
40 -41 1513 0
39 1513 0
42 1513 0
39 -40 41 42 -1514 0
-39 40 41 -42 -1514 0
-39 -40 1514 0
-39 42 1514 0
39 40 1514 0
39 -42 1514 0
-41 1514 0
-89 90 197 -198 -1515 0
-89 -90 -197 -198 -1515 0
-90 197 1515 0
90 -197 1515 0
89 1515 0
198 1515 0
89 -90 197 198 -1516 0
-89 90 197 -198 -1516 0
-89 -90 1516 0
-89 198 1516 0
89 90 1516 0
89 -198 1516 0
-197 1516 0
-67 68 89 -90 -1517 0
-67 -68 -89 -90 -1517 0
-68 89 1517 0
68 -89 1517 0
67 1517 0
90 1517 0
67 -68 89 90 -1518 0
-67 68 89 -90 -1518 0
-67 -68 1518 0
-67 90 1518 0
67 68 1518 0
67 -90 1518 0
-89 1518 0
-41 42 89 -90 -1519 0
-41 -42 -89 -90 -1519 0
-42 89 1519 0
42 -89 1519 0
41 1519 0
90 1519 0
41 -42 89 90 -1520 0
-41 42 89 -90 -1520 0
-41 -42 1520 0
-41 90 1520 0
41 42 1520 0
41 -90 1520 0
-89 1520 0
-109 110 111 -112 -1521 0
-109 -110 -111 -112 -1521 0
-110 111 1521 0
110 -111 1521 0
109 1521 0
112 1521 0
109 -110 111 112 -1522 0
-109 110 111 -112 -1522 0
-109 -110 1522 0
-109 112 1522 0
109 110 1522 0
109 -112 1522 0
-111 1522 0
-113 114 1111 -1112 -1523 0
-113 -114 -1111 -1112 -1523 0
-114 1111 1523 0
114 -1111 1523 0
113 1523 0
1112 1523 0
113 -114 1111 1112 -1524 0
-113 114 1111 -1112 -1524 0
-113 -114 1524 0
-113 1112 1524 0
113 114 1524 0
113 -1112 1524 0
-1111 1524 0
-153 154 2121 -2122 -1525 0
-153 -154 -2121 -2122 -1525 0
-154 2121 1525 0
154 -2121 1525 0
153 1525 0
2122 1525 0
153 -154 2121 2122 -1526 0
-153 154 2121 -2122 -1526 0
-153 -154 1526 0
-153 2122 1526 0
153 154 1526 0
153 -2122 1526 0
-2121 1526 0
-181 182 189 -190 -1527 0
-181 -182 -189 -190 -1527 0
-182 189 1527 0
182 -189 1527 0
181 1527 0
190 1527 0
181 -182 189 190 -1528 0
-181 182 189 -190 -1528 0
-181 -182 1528 0
-181 190 1528 0
181 182 1528 0
181 -190 1528 0
-189 1528 0
-1525 1526 1527 -1528 -1529 0
-1525 -1526 -1527 -1528 -1529 0
-1526 1527 1529 0
1526 -1527 1529 0
1525 1529 0
1528 1529 0
1525 -1526 1527 1528 -1530 0
-1525 1526 1527 -1528 -1530 0
-1525 -1526 1530 0
-1525 1528 1530 0
1525 1526 1530 0
1525 -1528 1530 0
-1527 1530 0
-153 154 2123 -2124 -1531 0
-153 -154 -2123 -2124 -1531 0
-154 2123 1531 0
154 -2123 1531 0
153 1531 0
2124 1531 0
153 -154 2123 2124 -1532 0
-153 154 2123 -2124 -1532 0
-153 -154 1532 0
-153 2124 1532 0
153 154 1532 0
153 -2124 1532 0
-2123 1532 0
-181 182 187 -188 -1533 0
-181 -182 -187 -188 -1533 0
-182 187 1533 0
182 -187 1533 0
181 1533 0
188 1533 0
181 -182 187 188 -1534 0
-181 182 187 -188 -1534 0
-181 -182 1534 0
-181 188 1534 0
181 182 1534 0
181 -188 1534 0
-187 1534 0
-1531 1532 1533 -1534 -1535 0
-1531 -1532 -1533 -1534 -1535 0
-1532 1533 1535 0
1532 -1533 1535 0
1531 1535 0
1534 1535 0
1531 -1532 1533 1534 -1536 0
-1531 1532 1533 -1534 -1536 0
-1531 -1532 1536 0
-1531 1534 1536 0
1531 1532 1536 0
1531 -1534 1536 0
-1533 1536 0
-2923 2924 2933 -2934 -1537 0
-2923 -2924 -2933 -2934 -1537 0
-2924 2933 1537 0
2924 -2933 1537 0
2923 1537 0
2934 1537 0
2923 -2924 2933 2934 -1538 0
-2923 2924 2933 -2934 -1538 0
-2923 -2924 1538 0
-2923 2934 1538 0
2923 2924 1538 0
2923 -2934 1538 0
-2933 1538 0
-2943 2944 2953 -2954 -1539 0
-2943 -2944 -2953 -2954 -1539 0
-2944 2953 1539 0
2944 -2953 1539 0
2943 1539 0
2954 1539 0
2943 -2944 2953 2954 -1540 0
-2943 2944 2953 -2954 -1540 0
-2943 -2944 1540 0
-2943 2954 1540 0
2943 2944 1540 0
2943 -2954 1540 0
-2953 1540 0
-1537 1538 1539 -1540 -1541 0
-1537 -1538 -1539 -1540 -1541 0
-1538 1539 1541 0
1538 -1539 1541 0
1537 1541 0
1540 1541 0
1537 -1538 1539 1540 -1542 0
-1537 1538 1539 -1540 -1542 0
-1537 -1538 1542 0
-1537 1540 1542 0
1537 1538 1542 0
1537 -1540 1542 0
-1539 1542 0
-2977 2978 2981 -2982 -1543 0
-2977 -2978 -2981 -2982 -1543 0
-2978 2981 1543 0
2978 -2981 1543 0
2977 1543 0
2982 1543 0
2977 -2978 2981 2982 -1544 0
-2977 2978 2981 -2982 -1544 0
-2977 -2978 1544 0
-2977 2982 1544 0
2977 2978 1544 0
2977 -2982 1544 0
-2981 1544 0
-2963 2964 2973 -2974 -1545 0
-2963 -2964 -2973 -2974 -1545 0
-2964 2973 1545 0
2964 -2973 1545 0
2963 1545 0
2974 1545 0
2963 -2964 2973 2974 -1546 0
-2963 2964 2973 -2974 -1546 0
-2963 -2964 1546 0
-2963 2974 1546 0
2963 2964 1546 0
2963 -2974 1546 0
-2973 1546 0
-1543 1544 1545 -1546 -1547 0
-1543 -1544 -1545 -1546 -1547 0
-1544 1545 1547 0
1544 -1545 1547 0
1543 1547 0
1546 1547 0
1543 -1544 1545 1546 -1548 0
-1543 1544 1545 -1546 -1548 0
-1543 -1544 1548 0
-1543 1546 1548 0
1543 1544 1548 0
1543 -1546 1548 0
-1545 1548 0
-2991 2992 2999 -3000 -1549 0
-2991 -2992 -2999 -3000 -1549 0
-2992 2999 1549 0
2992 -2999 1549 0
2991 1549 0
3000 1549 0
2991 -2992 2999 3000 -1550 0
-2991 2992 2999 -3000 -1550 0
-2991 -2992 1550 0
-2991 3000 1550 0
2991 2992 1550 0
2991 -3000 1550 0
-2999 1550 0
-3007 3008 3015 -3016 -1551 0
-3007 -3008 -3015 -3016 -1551 0
-3008 3015 1551 0
3008 -3015 1551 0
3007 1551 0
3016 1551 0
3007 -3008 3015 3016 -1552 0
-3007 3008 3015 -3016 -1552 0
-3007 -3008 1552 0
-3007 3016 1552 0
3007 3008 1552 0
3007 -3016 1552 0
-3015 1552 0
-1549 1550 1551 -1552 -1553 0
-1549 -1550 -1551 -1552 -1553 0
-1550 1551 1553 0
1550 -1551 1553 0
1549 1553 0
1552 1553 0
1549 -1550 1551 1552 -1554 0
-1549 1550 1551 -1552 -1554 0
-1549 -1550 1554 0
-1549 1552 1554 0
1549 1550 1554 0
1549 -1552 1554 0
-1551 1554 0
-3035 3036 3037 -3038 -1555 0
-3035 -3036 -3037 -3038 -1555 0
-3036 3037 1555 0
3036 -3037 1555 0
3035 1555 0
3038 1555 0
3035 -3036 3037 3038 -1556 0
-3035 3036 3037 -3038 -1556 0
-3035 -3036 1556 0
-3035 3038 1556 0
3035 3036 1556 0
3035 -3038 1556 0
-3037 1556 0
-3023 3024 3031 -3032 -1557 0
-3023 -3024 -3031 -3032 -1557 0
-3024 3031 1557 0
3024 -3031 1557 0
3023 1557 0
3032 1557 0
3023 -3024 3031 3032 -1558 0
-3023 3024 3031 -3032 -1558 0
-3023 -3024 1558 0
-3023 3032 1558 0
3023 3024 1558 0
3023 -3032 1558 0
-3031 1558 0
-1555 1556 1557 -1558 -1559 0
-1555 -1556 -1557 -1558 -1559 0
-1556 1557 1559 0
1556 -1557 1559 0
1555 1559 0
1558 1559 0
1555 -1556 1557 1558 -1560 0
-1555 1556 1557 -1558 -1560 0
-1555 -1556 1560 0
-1555 1558 1560 0
1555 1556 1560 0
1555 -1558 1560 0
-1557 1560 0
-3045 3046 3053 -3054 -1561 0
-3045 -3046 -3053 -3054 -1561 0
-3046 3053 1561 0
3046 -3053 1561 0
3045 1561 0
3054 1561 0
3045 -3046 3053 3054 -1562 0
-3045 3046 3053 -3054 -1562 0
-3045 -3046 1562 0
-3045 3054 1562 0
3045 3046 1562 0
3045 -3054 1562 0
-3053 1562 0
-3061 3062 3069 -3070 -1563 0
-3061 -3062 -3069 -3070 -1563 0
-3062 3069 1563 0
3062 -3069 1563 0
3061 1563 0
3070 1563 0
3061 -3062 3069 3070 -1564 0
-3061 3062 3069 -3070 -1564 0
-3061 -3062 1564 0
-3061 3070 1564 0
3061 3062 1564 0
3061 -3070 1564 0
-3069 1564 0
-1561 1562 1563 -1564 -1565 0
-1561 -1562 -1563 -1564 -1565 0
-1562 1563 1565 0
1562 -1563 1565 0
1561 1565 0
1564 1565 0
1561 -1562 1563 1564 -1566 0
-1561 1562 1563 -1564 -1566 0
-1561 -1562 1566 0
-1561 1564 1566 0
1561 1562 1566 0
1561 -1564 1566 0
-1563 1566 0
-3089 3090 3091 -3092 -1567 0
-3089 -3090 -3091 -3092 -1567 0
-3090 3091 1567 0
3090 -3091 1567 0
3089 1567 0
3092 1567 0
3089 -3090 3091 3092 -1568 0
-3089 3090 3091 -3092 -1568 0
-3089 -3090 1568 0
-3089 3092 1568 0
3089 3090 1568 0
3089 -3092 1568 0
-3091 1568 0
-3077 3078 3085 -3086 -1569 0
-3077 -3078 -3085 -3086 -1569 0
-3078 3085 1569 0
3078 -3085 1569 0
3077 1569 0
3086 1569 0
3077 -3078 3085 3086 -1570 0
-3077 3078 3085 -3086 -1570 0
-3077 -3078 1570 0
-3077 3086 1570 0
3077 3078 1570 0
3077 -3086 1570 0
-3085 1570 0
-1567 1568 1569 -1570 -1571 0
-1567 -1568 -1569 -1570 -1571 0
-1568 1569 1571 0
1568 -1569 1571 0
1567 1571 0
1570 1571 0
1567 -1568 1569 1570 -1572 0
-1567 1568 1569 -1570 -1572 0
-1567 -1568 1572 0
-1567 1570 1572 0
1567 1568 1572 0
1567 -1570 1572 0
-1569 1572 0
-3099 3100 3107 -3108 -1573 0
-3099 -3100 -3107 -3108 -1573 0
-3100 3107 1573 0
3100 -3107 1573 0
3099 1573 0
3108 1573 0
3099 -3100 3107 3108 -1574 0
-3099 3100 3107 -3108 -1574 0
-3099 -3100 1574 0
-3099 3108 1574 0
3099 3100 1574 0
3099 -3108 1574 0
-3107 1574 0
-3115 3116 3123 -3124 -1575 0
-3115 -3116 -3123 -3124 -1575 0
-3116 3123 1575 0
3116 -3123 1575 0
3115 1575 0
3124 1575 0
3115 -3116 3123 3124 -1576 0
-3115 3116 3123 -3124 -1576 0
-3115 -3116 1576 0
-3115 3124 1576 0
3115 3116 1576 0
3115 -3124 1576 0
-3123 1576 0
-1573 1574 1575 -1576 -1577 0
-1573 -1574 -1575 -1576 -1577 0
-1574 1575 1577 0
1574 -1575 1577 0
1573 1577 0
1576 1577 0
1573 -1574 1575 1576 -1578 0
-1573 1574 1575 -1576 -1578 0
-1573 -1574 1578 0
-1573 1576 1578 0
1573 1574 1578 0
1573 -1576 1578 0
-1575 1578 0
-3143 3144 3145 -3146 -1579 0
-3143 -3144 -3145 -3146 -1579 0
-3144 3145 1579 0
3144 -3145 1579 0
3143 1579 0
3146 1579 0
3143 -3144 3145 3146 -1580 0
-3143 3144 3145 -3146 -1580 0
-3143 -3144 1580 0
-3143 3146 1580 0
3143 3144 1580 0
3143 -3146 1580 0
-3145 1580 0
-3131 3132 3139 -3140 -1581 0
-3131 -3132 -3139 -3140 -1581 0
-3132 3139 1581 0
3132 -3139 1581 0
3131 1581 0
3140 1581 0
3131 -3132 3139 3140 -1582 0
-3131 3132 3139 -3140 -1582 0
-3131 -3132 1582 0
-3131 3140 1582 0
3131 3132 1582 0
3131 -3140 1582 0
-3139 1582 0
-1579 1580 1581 -1582 -1583 0
-1579 -1580 -1581 -1582 -1583 0
-1580 1581 1583 0
1580 -1581 1583 0
1579 1583 0
1582 1583 0
1579 -1580 1581 1582 -1584 0
-1579 1580 1581 -1582 -1584 0
-1579 -1580 1584 0
-1579 1582 1584 0
1579 1580 1584 0
1579 -1582 1584 0
-1581 1584 0
-1 2 143 -144 -1585 0
-1 -2 -143 -144 -1585 0
-2 143 1585 0
2 -143 1585 0
1 1585 0
144 1585 0
1 -2 143 144 -1586 0
-1 2 143 -144 -1586 0
-1 -2 1586 0
-1 144 1586 0
1 2 1586 0
1 -144 1586 0
-143 1586 0
-2805 2806 2811 -2812 -1587 0
-2805 -2806 -2811 -2812 -1587 0
-2806 2811 1587 0
2806 -2811 1587 0
2805 1587 0
2812 1587 0
2805 -2806 2811 2812 -1588 0
-2805 2806 2811 -2812 -1588 0
-2805 -2806 1588 0
-2805 2812 1588 0
2805 2806 1588 0
2805 -2812 1588 0
-2811 1588 0
-2819 2820 2825 -2826 -1589 0
-2819 -2820 -2825 -2826 -1589 0
-2820 2825 1589 0
2820 -2825 1589 0
2819 1589 0
2826 1589 0
2819 -2820 2825 2826 -1590 0
-2819 2820 2825 -2826 -1590 0
-2819 -2820 1590 0
-2819 2826 1590 0
2819 2820 1590 0
2819 -2826 1590 0
-2825 1590 0
-1587 1588 1589 -1590 -1591 0
-1587 -1588 -1589 -1590 -1591 0
-1588 1589 1591 0
1588 -1589 1591 0
1587 1591 0
1590 1591 0
1587 -1588 1589 1590 -1592 0
-1587 1588 1589 -1590 -1592 0
-1587 -1588 1592 0
-1587 1590 1592 0
1587 1588 1592 0
1587 -1590 1592 0
-1589 1592 0
-2833 2834 2839 -2840 -1593 0
-2833 -2834 -2839 -2840 -1593 0
-2834 2839 1593 0
2834 -2839 1593 0
2833 1593 0
2840 1593 0
2833 -2834 2839 2840 -1594 0
-2833 2834 2839 -2840 -1594 0
-2833 -2834 1594 0
-2833 2840 1594 0
2833 2834 1594 0
2833 -2840 1594 0
-2839 1594 0
-2847 2848 2853 -2854 -1595 0
-2847 -2848 -2853 -2854 -1595 0
-2848 2853 1595 0
2848 -2853 1595 0
2847 1595 0
2854 1595 0
2847 -2848 2853 2854 -1596 0
-2847 2848 2853 -2854 -1596 0
-2847 -2848 1596 0
-2847 2854 1596 0
2847 2848 1596 0
2847 -2854 1596 0
-2853 1596 0
-1593 1594 1595 -1596 -1597 0
-1593 -1594 -1595 -1596 -1597 0
-1594 1595 1597 0
1594 -1595 1597 0
1593 1597 0
1596 1597 0
1593 -1594 1595 1596 -1598 0
-1593 1594 1595 -1596 -1598 0
-1593 -1594 1598 0
-1593 1596 1598 0
1593 1594 1598 0
1593 -1596 1598 0
-1595 1598 0
-139 140 2877 -2878 -1599 0
-139 -140 -2877 -2878 -1599 0
-140 2877 1599 0
140 -2877 1599 0
139 1599 0
2878 1599 0
139 -140 2877 2878 -1600 0
-139 140 2877 -2878 -1600 0
-139 -140 1600 0
-139 2878 1600 0
139 140 1600 0
139 -2878 1600 0
-2877 1600 0
-1811 1812 2879 -2880 -1601 0
-1811 -1812 -2879 -2880 -1601 0
-1812 2879 1601 0
1812 -2879 1601 0
1811 1601 0
2880 1601 0
1811 -1812 2879 2880 -1602 0
-1811 1812 2879 -2880 -1602 0
-1811 -1812 1602 0
-1811 2880 1602 0
1811 1812 1602 0
1811 -2880 1602 0
-2879 1602 0
-1599 1600 1601 -1602 -1603 0
-1599 -1600 -1601 -1602 -1603 0
-1600 1601 1603 0
1600 -1601 1603 0
1599 1603 0
1602 1603 0
1599 -1600 1601 1602 -1604 0
-1599 1600 1601 -1602 -1604 0
-1599 -1600 1604 0
-1599 1602 1604 0
1599 1600 1604 0
1599 -1602 1604 0
-1601 1604 0
-2861 2862 2867 -2868 -1605 0
-2861 -2862 -2867 -2868 -1605 0
-2862 2867 1605 0
2862 -2867 1605 0
2861 1605 0
2868 1605 0
2861 -2862 2867 2868 -1606 0
-2861 2862 2867 -2868 -1606 0
-2861 -2862 1606 0
-2861 2868 1606 0
2861 2862 1606 0
2861 -2868 1606 0
-2867 1606 0
-2871 2872 2875 -2876 -1607 0
-2871 -2872 -2875 -2876 -1607 0
-2872 2875 1607 0
2872 -2875 1607 0
2871 1607 0
2876 1607 0
2871 -2872 2875 2876 -1608 0
-2871 2872 2875 -2876 -1608 0
-2871 -2872 1608 0
-2871 2876 1608 0
2871 2872 1608 0
2871 -2876 1608 0
-2875 1608 0
-1605 1606 1607 -1608 -1609 0
-1605 -1606 -1607 -1608 -1609 0
-1606 1607 1609 0
1606 -1607 1609 0
1605 1609 0
1608 1609 0
1605 -1606 1607 1608 -1610 0
-1605 1606 1607 -1608 -1610 0
-1605 -1606 1610 0
-1605 1608 1610 0
1605 1606 1610 0
1605 -1608 1610 0
-1607 1610 0
-115 116 2897 -2898 -1611 0
-115 -116 -2897 -2898 -1611 0
-116 2897 1611 0
116 -2897 1611 0
115 1611 0
2898 1611 0
115 -116 2897 2898 -1612 0
-115 116 2897 -2898 -1612 0
-115 -116 1612 0
-115 2898 1612 0
115 116 1612 0
115 -2898 1612 0
-2897 1612 0
-169 170 2899 -2900 -1613 0
-169 -170 -2899 -2900 -1613 0
-170 2899 1613 0
170 -2899 1613 0
169 1613 0
2900 1613 0
169 -170 2899 2900 -1614 0
-169 170 2899 -2900 -1614 0
-169 -170 1614 0
-169 2900 1614 0
169 170 1614 0
169 -2900 1614 0
-2899 1614 0
-1611 1612 1613 -1614 -1615 0
-1611 -1612 -1613 -1614 -1615 0
-1612 1613 1615 0
1612 -1613 1615 0
1611 1615 0
1614 1615 0
1611 -1612 1613 1614 -1616 0
-1611 1612 1613 -1614 -1616 0
-1611 -1612 1616 0
-1611 1614 1616 0
1611 1612 1616 0
1611 -1614 1616 0
-1613 1616 0
-2883 2884 2887 -2888 -1617 0
-2883 -2884 -2887 -2888 -1617 0
-2884 2887 1617 0
2884 -2887 1617 0
2883 1617 0
2888 1617 0
2883 -2884 2887 2888 -1618 0
-2883 2884 2887 -2888 -1618 0
-2883 -2884 1618 0
-2883 2888 1618 0
2883 2884 1618 0
2883 -2888 1618 0
-2887 1618 0
-2891 2892 2895 -2896 -1619 0
-2891 -2892 -2895 -2896 -1619 0
-2892 2895 1619 0
2892 -2895 1619 0
2891 1619 0
2896 1619 0
2891 -2892 2895 2896 -1620 0
-2891 2892 2895 -2896 -1620 0
-2891 -2892 1620 0
-2891 2896 1620 0
2891 2892 1620 0
2891 -2896 1620 0
-2895 1620 0
-1617 1618 1619 -1620 -1621 0
-1617 -1618 -1619 -1620 -1621 0
-1618 1619 1621 0
1618 -1619 1621 0
1617 1621 0
1620 1621 0
1617 -1618 1619 1620 -1622 0
-1617 1618 1619 -1620 -1622 0
-1617 -1618 1622 0
-1617 1620 1622 0
1617 1618 1622 0
1617 -1620 1622 0
-1619 1622 0
-81 82 179 -180 -1623 0
-81 -82 -179 -180 -1623 0
-82 179 1623 0
82 -179 1623 0
81 1623 0
180 1623 0
81 -82 179 180 -1624 0
-81 82 179 -180 -1624 0
-81 -82 1624 0
-81 180 1624 0
81 82 1624 0
81 -180 1624 0
-179 1624 0
-2903 2904 2907 -2908 -1625 0
-2903 -2904 -2907 -2908 -1625 0
-2904 2907 1625 0
2904 -2907 1625 0
2903 1625 0
2908 1625 0
2903 -2904 2907 2908 -1626 0
-2903 2904 2907 -2908 -1626 0
-2903 -2904 1626 0
-2903 2908 1626 0
2903 2904 1626 0
2903 -2908 1626 0
-2907 1626 0
-2911 2912 2913 -2914 -1627 0
-2911 -2912 -2913 -2914 -1627 0
-2912 2913 1627 0
2912 -2913 1627 0
2911 1627 0
2914 1627 0
2911 -2912 2913 2914 -1628 0
-2911 2912 2913 -2914 -1628 0
-2911 -2912 1628 0
-2911 2914 1628 0
2911 2912 1628 0
2911 -2914 1628 0
-2913 1628 0
-1625 1626 1627 -1628 -1629 0
-1625 -1626 -1627 -1628 -1629 0
-1626 1627 1629 0
1626 -1627 1629 0
1625 1629 0
1628 1629 0
1625 -1626 1627 1628 -1630 0
-1625 1626 1627 -1628 -1630 0
-1625 -1626 1630 0
-1625 1628 1630 0
1625 1626 1630 0
1625 -1628 1630 0
-1627 1630 0
-2179 2180 2185 -2186 -1631 0
-2179 -2180 -2185 -2186 -1631 0
-2180 2185 1631 0
2180 -2185 1631 0
2179 1631 0
2186 1631 0
2179 -2180 2185 2186 -1632 0
-2179 2180 2185 -2186 -1632 0
-2179 -2180 1632 0
-2179 2186 1632 0
2179 2180 1632 0
2179 -2186 1632 0
-2185 1632 0
-2191 2192 2197 -2198 -1633 0
-2191 -2192 -2197 -2198 -1633 0
-2192 2197 1633 0
2192 -2197 1633 0
2191 1633 0
2198 1633 0
2191 -2192 2197 2198 -1634 0
-2191 2192 2197 -2198 -1634 0
-2191 -2192 1634 0
-2191 2198 1634 0
2191 2192 1634 0
2191 -2198 1634 0
-2197 1634 0
-1631 1632 1633 -1634 -1635 0
-1631 -1632 -1633 -1634 -1635 0
-1632 1633 1635 0
1632 -1633 1635 0
1631 1635 0
1634 1635 0
1631 -1632 1633 1634 -1636 0
-1631 1632 1633 -1634 -1636 0
-1631 -1632 1636 0
-1631 1634 1636 0
1631 1632 1636 0
1631 -1634 1636 0
-1633 1636 0
-2203 2204 2209 -2210 -1637 0
-2203 -2204 -2209 -2210 -1637 0
-2204 2209 1637 0
2204 -2209 1637 0
2203 1637 0
2210 1637 0
2203 -2204 2209 2210 -1638 0
-2203 2204 2209 -2210 -1638 0
-2203 -2204 1638 0
-2203 2210 1638 0
2203 2204 1638 0
2203 -2210 1638 0
-2209 1638 0
-2215 2216 2221 -2222 -1639 0
-2215 -2216 -2221 -2222 -1639 0
-2216 2221 1639 0
2216 -2221 1639 0
2215 1639 0
2222 1639 0
2215 -2216 2221 2222 -1640 0
-2215 2216 2221 -2222 -1640 0
-2215 -2216 1640 0
-2215 2222 1640 0
2215 2216 1640 0
2215 -2222 1640 0
-2221 1640 0
-1637 1638 1639 -1640 -1641 0
-1637 -1638 -1639 -1640 -1641 0
-1638 1639 1641 0
1638 -1639 1641 0
1637 1641 0
1640 1641 0
1637 -1638 1639 1640 -1642 0
-1637 1638 1639 -1640 -1642 0
-1637 -1638 1642 0
-1637 1640 1642 0
1637 1638 1642 0
1637 -1640 1642 0
-1639 1642 0
-69 70 89 -90 -1643 0
-69 -70 -89 -90 -1643 0
-70 89 1643 0
70 -89 1643 0
69 1643 0
90 1643 0
69 -70 89 90 -1644 0
-69 70 89 -90 -1644 0
-69 -70 1644 0
-69 90 1644 0
69 70 1644 0
69 -90 1644 0
-89 1644 0
-497 498 1225 -1226 -1645 0
-497 -498 -1225 -1226 -1645 0
-498 1225 1645 0
498 -1225 1645 0
497 1645 0
1226 1645 0
497 -498 1225 1226 -1646 0
-497 498 1225 -1226 -1646 0
-497 -498 1646 0
-497 1226 1646 0
497 498 1646 0
497 -1226 1646 0
-1225 1646 0
-1643 1644 1645 -1646 -1647 0
-1643 -1644 -1645 -1646 -1647 0
-1644 1645 1647 0
1644 -1645 1647 0
1643 1647 0
1646 1647 0
1643 -1644 1645 1646 -1648 0
-1643 1644 1645 -1646 -1648 0
-1643 -1644 1648 0
-1643 1646 1648 0
1643 1644 1648 0
1643 -1646 1648 0
-1645 1648 0
-43 44 89 -90 -1649 0
-43 -44 -89 -90 -1649 0
-44 89 1649 0
44 -89 1649 0
43 1649 0
90 1649 0
43 -44 89 90 -1650 0
-43 44 89 -90 -1650 0
-43 -44 1650 0
-43 90 1650 0
43 44 1650 0
43 -90 1650 0
-89 1650 0
-497 498 1225 -1226 -1651 0
-497 -498 -1225 -1226 -1651 0
-498 1225 1651 0
498 -1225 1651 0
497 1651 0
1226 1651 0
497 -498 1225 1226 -1652 0
-497 498 1225 -1226 -1652 0
-497 -498 1652 0
-497 1226 1652 0
497 498 1652 0
497 -1226 1652 0
-1225 1652 0
-1649 1650 1651 -1652 -1653 0
-1649 -1650 -1651 -1652 -1653 0
-1650 1651 1653 0
1650 -1651 1653 0
1649 1653 0
1652 1653 0
1649 -1650 1651 1652 -1654 0
-1649 1650 1651 -1652 -1654 0
-1649 -1650 1654 0
-1649 1652 1654 0
1649 1650 1654 0
1649 -1652 1654 0
-1651 1654 0
-1679 1680 1681 -1682 -1655 0
-1679 -1680 -1681 -1682 -1655 0
-1680 1681 1655 0
1680 -1681 1655 0
1679 1655 0
1682 1655 0
1679 -1680 1681 1682 -1656 0
-1679 1680 1681 -1682 -1656 0
-1679 -1680 1656 0
-1679 1682 1656 0
1679 1680 1656 0
1679 -1682 1656 0
-1681 1656 0
-183 184 1225 -1226 -1657 0
-183 -184 -1225 -1226 -1657 0
-184 1225 1657 0
184 -1225 1657 0
183 1657 0
1226 1657 0
183 -184 1225 1226 -1658 0
-183 184 1225 -1226 -1658 0
-183 -184 1658 0
-183 1226 1658 0
183 184 1658 0
183 -1226 1658 0
-1225 1658 0
-1655 1656 1657 -1658 -1659 0
-1655 -1656 -1657 -1658 -1659 0
-1656 1657 1659 0
1656 -1657 1659 0
1655 1659 0
1658 1659 0
1655 -1656 1657 1658 -1660 0
-1655 1656 1657 -1658 -1660 0
-1655 -1656 1660 0
-1655 1658 1660 0
1655 1656 1660 0
1655 -1658 1660 0
-1657 1660 0
-183 184 1225 -1226 -1661 0
-183 -184 -1225 -1226 -1661 0
-184 1225 1661 0
184 -1225 1661 0
183 1661 0
1226 1661 0
183 -184 1225 1226 -1662 0
-183 184 1225 -1226 -1662 0
-183 -184 1662 0
-183 1226 1662 0
183 184 1662 0
183 -1226 1662 0
-1225 1662 0
-1655 1656 1661 -1662 -1663 0
-1655 -1656 -1661 -1662 -1663 0
-1656 1661 1663 0
1656 -1661 1663 0
1655 1663 0
1662 1663 0
1655 -1656 1661 1662 -1664 0
-1655 1656 1661 -1662 -1664 0
-1655 -1656 1664 0
-1655 1662 1664 0
1655 1656 1664 0
1655 -1662 1664 0
-1661 1664 0
-1735 1736 1737 -1738 -1665 0
-1735 -1736 -1737 -1738 -1665 0
-1736 1737 1665 0
1736 -1737 1665 0
1735 1665 0
1738 1665 0
1735 -1736 1737 1738 -1666 0
-1735 1736 1737 -1738 -1666 0
-1735 -1736 1666 0
-1735 1738 1666 0
1735 1736 1666 0
1735 -1738 1666 0
-1737 1666 0
-191 192 1711 -1712 -1667 0
-191 -192 -1711 -1712 -1667 0
-192 1711 1667 0
192 -1711 1667 0
191 1667 0
1712 1667 0
191 -192 1711 1712 -1668 0
-191 192 1711 -1712 -1668 0
-191 -192 1668 0
-191 1712 1668 0
191 192 1668 0
191 -1712 1668 0
-1711 1668 0
-493 494 497 -498 -1669 0
-493 -494 -497 -498 -1669 0
-494 497 1669 0
494 -497 1669 0
493 1669 0
498 1669 0
493 -494 497 498 -1670 0
-493 494 497 -498 -1670 0
-493 -494 1670 0
-493 498 1670 0
493 494 1670 0
493 -498 1670 0
-497 1670 0
-205 206 1225 -1226 -1671 0
-205 -206 -1225 -1226 -1671 0
-206 1225 1671 0
206 -1225 1671 0
205 1671 0
1226 1671 0
205 -206 1225 1226 -1672 0
-205 206 1225 -1226 -1672 0
-205 -206 1672 0
-205 1226 1672 0
205 206 1672 0
205 -1226 1672 0
-1225 1672 0
-1467 1468 1671 -1672 -1673 0
-1467 -1468 -1671 -1672 -1673 0
-1468 1671 1673 0
1468 -1671 1673 0
1467 1673 0
1672 1673 0
1467 -1468 1671 1672 -1674 0
-1467 1468 1671 -1672 -1674 0
-1467 -1468 1674 0
-1467 1672 1674 0
1467 1468 1674 0
1467 -1672 1674 0
-1671 1674 0
-493 494 497 -498 -1675 0
-493 -494 -497 -498 -1675 0
-494 497 1675 0
494 -497 1675 0
493 1675 0
498 1675 0
493 -494 497 498 -1676 0
-493 494 497 -498 -1676 0
-493 -494 1676 0
-493 498 1676 0
493 494 1676 0
493 -498 1676 0
-497 1676 0
-1225 1226 1675 -1676 -1677 0
-1225 -1226 -1675 -1676 -1677 0
-1226 1675 1677 0
1226 -1675 1677 0
1225 1677 0
1676 1677 0
1225 -1226 1675 1676 -1678 0
-1225 1226 1675 -1676 -1678 0
-1225 -1226 1678 0
-1225 1676 1678 0
1225 1226 1678 0
1225 -1676 1678 0
-1675 1678 0
-185 186 1723 -1724 -1679 0
-185 -186 -1723 -1724 -1679 0
-186 1723 1679 0
186 -1723 1679 0
185 1679 0
1724 1679 0
185 -186 1723 1724 -1680 0
-185 186 1723 -1724 -1680 0
-185 -186 1680 0
-185 1724 1680 0
185 186 1680 0
185 -1724 1680 0
-1723 1680 0
-183 184 1723 -1724 -1681 0
-183 -184 -1723 -1724 -1681 0
-184 1723 1681 0
184 -1723 1681 0
183 1681 0
1724 1681 0
183 -184 1723 1724 -1682 0
-183 184 1723 -1724 -1682 0
-183 -184 1682 0
-183 1724 1682 0
183 184 1682 0
183 -1724 1682 0
-1723 1682 0
-185 186 1225 -1226 -1683 0
-185 -186 -1225 -1226 -1683 0
-186 1225 1683 0
186 -1225 1683 0
185 1683 0
1226 1683 0
185 -186 1225 1226 -1684 0
-185 186 1225 -1226 -1684 0
-185 -186 1684 0
-185 1226 1684 0
185 186 1684 0
185 -1226 1684 0
-1225 1684 0
-183 184 185 -186 -1685 0
-183 -184 -185 -186 -1685 0
-184 185 1685 0
184 -185 1685 0
183 1685 0
186 1685 0
183 -184 185 186 -1686 0
-183 184 185 -186 -1686 0
-183 -184 1686 0
-183 186 1686 0
183 184 1686 0
183 -186 1686 0
-185 1686 0
-1225 1226 1655 -1656 -1687 0
-1225 -1226 -1655 -1656 -1687 0
-1226 1655 1687 0
1226 -1655 1687 0
1225 1687 0
1656 1687 0
1225 -1226 1655 1656 -1688 0
-1225 1226 1655 -1656 -1688 0
-1225 -1226 1688 0
-1225 1656 1688 0
1225 1226 1688 0
1225 -1656 1688 0
-1655 1688 0
-1685 1686 1687 -1688 -1689 0
-1685 -1686 -1687 -1688 -1689 0
-1686 1687 1689 0
1686 -1687 1689 0
1685 1689 0
1688 1689 0
1685 -1686 1687 1688 -1690 0
-1685 1686 1687 -1688 -1690 0
-1685 -1686 1690 0
-1685 1688 1690 0
1685 1686 1690 0
1685 -1688 1690 0
-1687 1690 0
-205 206 1225 -1226 -1691 0
-205 -206 -1225 -1226 -1691 0
-206 1225 1691 0
206 -1225 1691 0
205 1691 0
1226 1691 0
205 -206 1225 1226 -1692 0
-205 206 1225 -1226 -1692 0
-205 -206 1692 0
-205 1226 1692 0
205 206 1692 0
205 -1226 1692 0
-1225 1692 0
-2057 2058 2059 -2060 -1693 0
-2057 -2058 -2059 -2060 -1693 0
-2058 2059 1693 0
2058 -2059 1693 0
2057 1693 0
2060 1693 0
2057 -2058 2059 2060 -1694 0
-2057 2058 2059 -2060 -1694 0
-2057 -2058 1694 0
-2057 2060 1694 0
2057 2058 1694 0
2057 -2060 1694 0
-2059 1694 0
-1691 1692 1693 -1694 -1695 0
-1691 -1692 -1693 -1694 -1695 0
-1692 1693 1695 0
1692 -1693 1695 0
1691 1695 0
1694 1695 0
1691 -1692 1693 1694 -1696 0
-1691 1692 1693 -1694 -1696 0
-1691 -1692 1696 0
-1691 1694 1696 0
1691 1692 1696 0
1691 -1694 1696 0
-1693 1696 0
-493 494 497 -498 -1697 0
-493 -494 -497 -498 -1697 0
-494 497 1697 0
494 -497 1697 0
493 1697 0
498 1697 0
493 -494 497 498 -1698 0
-493 494 497 -498 -1698 0
-493 -494 1698 0
-493 498 1698 0
493 494 1698 0
493 -498 1698 0
-497 1698 0
-183 184 185 -186 -1699 0
-183 -184 -185 -186 -1699 0
-184 185 1699 0
184 -185 1699 0
183 1699 0
186 1699 0
183 -184 185 186 -1700 0
-183 184 185 -186 -1700 0
-183 -184 1700 0
-183 186 1700 0
183 184 1700 0
183 -186 1700 0
-185 1700 0
-1225 1226 1699 -1700 -1701 0
-1225 -1226 -1699 -1700 -1701 0
-1226 1699 1701 0
1226 -1699 1701 0
1225 1701 0
1700 1701 0
1225 -1226 1699 1700 -1702 0
-1225 1226 1699 -1700 -1702 0
-1225 -1226 1702 0
-1225 1700 1702 0
1225 1226 1702 0
1225 -1700 1702 0
-1699 1702 0
-493 494 497 -498 -1703 0
-493 -494 -497 -498 -1703 0
-494 497 1703 0
494 -497 1703 0
493 1703 0
498 1703 0
493 -494 497 498 -1704 0
-493 494 497 -498 -1704 0
-493 -494 1704 0
-493 498 1704 0
493 494 1704 0
493 -498 1704 0
-497 1704 0
-1225 1226 1703 -1704 -1705 0
-1225 -1226 -1703 -1704 -1705 0
-1226 1703 1705 0
1226 -1703 1705 0
1225 1705 0
1704 1705 0
1225 -1226 1703 1704 -1706 0
-1225 1226 1703 -1704 -1706 0
-1225 -1226 1706 0
-1225 1704 1706 0
1225 1226 1706 0
1225 -1704 1706 0
-1703 1706 0
-501 502 1197 -1198 -1707 0
-501 -502 -1197 -1198 -1707 0
-502 1197 1707 0
502 -1197 1707 0
501 1707 0
1198 1707 0
501 -502 1197 1198 -1708 0
-501 502 1197 -1198 -1708 0
-501 -502 1708 0
-501 1198 1708 0
501 502 1708 0
501 -1198 1708 0
-1197 1708 0
-1 2 63 -64 -1709 0
-1 -2 -63 -64 -1709 0
-2 63 1709 0
2 -63 1709 0
1 1709 0
64 1709 0
1 -2 63 64 -1710 0
-1 2 63 -64 -1710 0
-1 -2 1710 0
-1 64 1710 0
1 2 1710 0
1 -64 1710 0
-63 1710 0
-1707 1708 1709 -1710 -1711 0
-1707 -1708 -1709 -1710 -1711 0
-1708 1709 1711 0
1708 -1709 1711 0
1707 1711 0
1710 1711 0
1707 -1708 1709 1710 -1712 0
-1707 1708 1709 -1710 -1712 0
-1707 -1708 1712 0
-1707 1710 1712 0
1707 1708 1712 0
1707 -1710 1712 0
-1709 1712 0
-183 184 1665 -1666 -1713 0
-183 -184 -1665 -1666 -1713 0
-184 1665 1713 0
184 -1665 1713 0
183 1713 0
1666 1713 0
183 -184 1665 1666 -1714 0
-183 184 1665 -1666 -1714 0
-183 -184 1714 0
-183 1666 1714 0
183 184 1714 0
183 -1666 1714 0
-1665 1714 0
-185 186 1665 -1666 -1715 0
-185 -186 -1665 -1666 -1715 0
-186 1665 1715 0
186 -1665 1715 0
185 1715 0
1666 1715 0
185 -186 1665 1666 -1716 0
-185 186 1665 -1666 -1716 0
-185 -186 1716 0
-185 1666 1716 0
185 186 1716 0
185 -1666 1716 0
-1665 1716 0
-1711 1712 1715 -1716 -1717 0
-1711 -1712 -1715 -1716 -1717 0
-1712 1715 1717 0
1712 -1715 1717 0
1711 1717 0
1716 1717 0
1711 -1712 1715 1716 -1718 0
-1711 1712 1715 -1716 -1718 0
-1711 -1712 1718 0
-1711 1716 1718 0
1711 1712 1718 0
1711 -1716 1718 0
-1715 1718 0
-185 186 191 -192 -1719 0
-185 -186 -191 -192 -1719 0
-186 191 1719 0
186 -191 1719 0
185 1719 0
192 1719 0
185 -186 191 192 -1720 0
-185 186 191 -192 -1720 0
-185 -186 1720 0
-185 192 1720 0
185 186 1720 0
185 -192 1720 0
-191 1720 0
-1711 1712 1719 -1720 -1721 0
-1711 -1712 -1719 -1720 -1721 0
-1712 1719 1721 0
1712 -1719 1721 0
1711 1721 0
1720 1721 0
1711 -1712 1719 1720 -1722 0
-1711 1712 1719 -1720 -1722 0
-1711 -1712 1722 0
-1711 1720 1722 0
1711 1712 1722 0
1711 -1720 1722 0
-1719 1722 0
-1739 1740 1741 -1742 -1723 0
-1739 -1740 -1741 -1742 -1723 0
-1740 1741 1723 0
1740 -1741 1723 0
1739 1723 0
1742 1723 0
1739 -1740 1741 1742 -1724 0
-1739 1740 1741 -1742 -1724 0
-1739 -1740 1724 0
-1739 1742 1724 0
1739 1740 1724 0
1739 -1742 1724 0
-1741 1724 0
-191 192 1723 -1724 -1725 0
-191 -192 -1723 -1724 -1725 0
-192 1723 1725 0
192 -1723 1725 0
191 1725 0
1724 1725 0
191 -192 1723 1724 -1726 0
-191 192 1723 -1724 -1726 0
-191 -192 1726 0
-191 1724 1726 0
191 192 1726 0
191 -1724 1726 0
-1723 1726 0
-183 184 191 -192 -1727 0
-183 -184 -191 -192 -1727 0
-184 191 1727 0
184 -191 1727 0
183 1727 0
192 1727 0
183 -184 191 192 -1728 0
-183 184 191 -192 -1728 0
-183 -184 1728 0
-183 192 1728 0
183 184 1728 0
183 -192 1728 0
-191 1728 0
-1711 1712 1727 -1728 -1729 0
-1711 -1712 -1727 -1728 -1729 0
-1712 1727 1729 0
1712 -1727 1729 0
1711 1729 0
1728 1729 0
1711 -1712 1727 1728 -1730 0
-1711 1712 1727 -1728 -1730 0
-1711 -1712 1730 0
-1711 1728 1730 0
1711 1712 1730 0
1711 -1728 1730 0
-1727 1730 0
-1665 1666 1723 -1724 -1731 0
-1665 -1666 -1723 -1724 -1731 0
-1666 1723 1731 0
1666 -1723 1731 0
1665 1731 0
1724 1731 0
1665 -1666 1723 1724 -1732 0
-1665 1666 1723 -1724 -1732 0
-1665 -1666 1732 0
-1665 1724 1732 0
1665 1666 1732 0
1665 -1724 1732 0
-1723 1732 0
-1711 1712 1731 -1732 -1733 0
-1711 -1712 -1731 -1732 -1733 0
-1712 1731 1733 0
1712 -1731 1733 0
1711 1733 0
1732 1733 0
1711 -1712 1731 1732 -1734 0
-1711 1712 1731 -1732 -1734 0
-1711 -1712 1734 0
-1711 1732 1734 0
1711 1712 1734 0
1711 -1732 1734 0
-1731 1734 0
-2137 2138 2151 -2152 -1735 0
-2137 -2138 -2151 -2152 -1735 0
-2138 2151 1735 0
2138 -2151 1735 0
2137 1735 0
2152 1735 0
2137 -2138 2151 2152 -1736 0
-2137 2138 2151 -2152 -1736 0
-2137 -2138 1736 0
-2137 2152 1736 0
2137 2138 1736 0
2137 -2152 1736 0
-2151 1736 0
-2153 2154 2165 -2166 -1737 0
-2153 -2154 -2165 -2166 -1737 0
-2154 2165 1737 0
2154 -2165 1737 0
2153 1737 0
2166 1737 0
2153 -2154 2165 2166 -1738 0
-2153 2154 2165 -2166 -1738 0
-2153 -2154 1738 0
-2153 2166 1738 0
2153 2154 1738 0
2153 -2166 1738 0
-2165 1738 0
-2239 2240 2241 -2242 -1739 0
-2239 -2240 -2241 -2242 -1739 0
-2240 2241 1739 0
2240 -2241 1739 0
2239 1739 0
2242 1739 0
2239 -2240 2241 2242 -1740 0
-2239 2240 2241 -2242 -1740 0
-2239 -2240 1740 0
-2239 2242 1740 0
2239 2240 1740 0
2239 -2242 1740 0
-2241 1740 0
-2243 2244 2245 -2246 -1741 0
-2243 -2244 -2245 -2246 -1741 0
-2244 2245 1741 0
2244 -2245 1741 0
2243 1741 0
2246 1741 0
2243 -2244 2245 2246 -1742 0
-2243 2244 2245 -2246 -1742 0
-2243 -2244 1742 0
-2243 2246 1742 0
2243 2244 1742 0
2243 -2246 1742 0
-2245 1742 0
-3 4 1225 -1226 -1743 0
-3 -4 -1225 -1226 -1743 0
-4 1225 1743 0
4 -1225 1743 0
3 1743 0
1226 1743 0
3 -4 1225 1226 -1744 0
-3 4 1225 -1226 -1744 0
-3 -4 1744 0
-3 1226 1744 0
3 4 1744 0
3 -1226 1744 0
-1225 1744 0
-3 4 1225 -1226 -1745 0
-3 -4 -1225 -1226 -1745 0
-4 1225 1745 0
4 -1225 1745 0
3 1745 0
1226 1745 0
3 -4 1225 1226 -1746 0
-3 4 1225 -1226 -1746 0
-3 -4 1746 0
-3 1226 1746 0
3 4 1746 0
3 -1226 1746 0
-1225 1746 0
-3 4 5 -6 -1747 0
-3 -4 -5 -6 -1747 0
-4 5 1747 0
4 -5 1747 0
3 1747 0
6 1747 0
3 -4 5 6 -1748 0
-3 4 5 -6 -1748 0
-3 -4 1748 0
-3 6 1748 0
3 4 1748 0
3 -6 1748 0
-5 1748 0
-1225 1226 1723 -1724 -1749 0
-1225 -1226 -1723 -1724 -1749 0
-1226 1723 1749 0
1226 -1723 1749 0
1225 1749 0
1724 1749 0
1225 -1226 1723 1724 -1750 0
-1225 1226 1723 -1724 -1750 0
-1225 -1226 1750 0
-1225 1724 1750 0
1225 1226 1750 0
1225 -1724 1750 0
-1723 1750 0
-5 6 1225 -1226 -1751 0
-5 -6 -1225 -1226 -1751 0
-6 1225 1751 0
6 -1225 1751 0
5 1751 0
1226 1751 0
5 -6 1225 1226 -1752 0
-5 6 1225 -1226 -1752 0
-5 -6 1752 0
-5 1226 1752 0
5 6 1752 0
5 -1226 1752 0
-1225 1752 0
-3 4 5 -6 -1753 0
-3 -4 -5 -6 -1753 0
-4 5 1753 0
4 -5 1753 0
3 1753 0
6 1753 0
3 -4 5 6 -1754 0
-3 4 5 -6 -1754 0
-3 -4 1754 0
-3 6 1754 0
3 4 1754 0
3 -6 1754 0
-5 1754 0
-109 110 111 -112 -1755 0
-109 -110 -111 -112 -1755 0
-110 111 1755 0
110 -111 1755 0
109 1755 0
112 1755 0
109 -110 111 112 -1756 0
-109 110 111 -112 -1756 0
-109 -110 1756 0
-109 112 1756 0
109 110 1756 0
109 -112 1756 0
-111 1756 0
-27 28 31 -32 -1757 0
-27 -28 -31 -32 -1757 0
-28 31 1757 0
28 -31 1757 0
27 1757 0
32 1757 0
27 -28 31 32 -1758 0
-27 28 31 -32 -1758 0
-27 -28 1758 0
-27 32 1758 0
27 28 1758 0
27 -32 1758 0
-31 1758 0
-7 8 139 -140 -1759 0
-7 -8 -139 -140 -1759 0
-8 139 1759 0
8 -139 1759 0
7 1759 0
140 1759 0
7 -8 139 140 -1760 0
-7 8 139 -140 -1760 0
-7 -8 1760 0
-7 140 1760 0
7 8 1760 0
7 -140 1760 0
-139 1760 0
-11 12 139 -140 -1761 0
-11 -12 -139 -140 -1761 0
-12 139 1761 0
12 -139 1761 0
11 1761 0
140 1761 0
11 -12 139 140 -1762 0
-11 12 139 -140 -1762 0
-11 -12 1762 0
-11 140 1762 0
11 12 1762 0
11 -140 1762 0
-139 1762 0
-141 142 1761 -1762 -1763 0
-141 -142 -1761 -1762 -1763 0
-142 1761 1763 0
142 -1761 1763 0
141 1763 0
1762 1763 0
141 -142 1761 1762 -1764 0
-141 142 1761 -1762 -1764 0
-141 -142 1764 0
-141 1762 1764 0
141 142 1764 0
141 -1762 1764 0
-1761 1764 0
-9 10 139 -140 -1765 0
-9 -10 -139 -140 -1765 0
-10 139 1765 0
10 -139 1765 0
9 1765 0
140 1765 0
9 -10 139 140 -1766 0
-9 10 139 -140 -1766 0
-9 -10 1766 0
-9 140 1766 0
9 10 1766 0
9 -140 1766 0
-139 1766 0
-141 142 1765 -1766 -1767 0
-141 -142 -1765 -1766 -1767 0
-142 1765 1767 0
142 -1765 1767 0
141 1767 0
1766 1767 0
141 -142 1765 1766 -1768 0
-141 142 1765 -1766 -1768 0
-141 -142 1768 0
-141 1766 1768 0
141 142 1768 0
141 -1766 1768 0
-1765 1768 0
-11 12 107 -108 -1769 0
-11 -12 -107 -108 -1769 0
-12 107 1769 0
12 -107 1769 0
11 1769 0
108 1769 0
11 -12 107 108 -1770 0
-11 12 107 -108 -1770 0
-11 -12 1770 0
-11 108 1770 0
11 12 1770 0
11 -108 1770 0
-107 1770 0
-9 10 107 -108 -1771 0
-9 -10 -107 -108 -1771 0
-10 107 1771 0
10 -107 1771 0
9 1771 0
108 1771 0
9 -10 107 108 -1772 0
-9 10 107 -108 -1772 0
-9 -10 1772 0
-9 108 1772 0
9 10 1772 0
9 -108 1772 0
-107 1772 0
-169 170 179 -180 -1773 0
-169 -170 -179 -180 -1773 0
-170 179 1773 0
170 -179 1773 0
169 1773 0
180 1773 0
169 -170 179 180 -1774 0
-169 170 179 -180 -1774 0
-169 -170 1774 0
-169 180 1774 0
169 170 1774 0
169 -180 1774 0
-179 1774 0
-169 170 171 -172 -1775 0
-169 -170 -171 -172 -1775 0
-170 171 1775 0
170 -171 1775 0
169 1775 0
172 1775 0
169 -170 171 172 -1776 0
-169 170 171 -172 -1776 0
-169 -170 1776 0
-169 172 1776 0
169 170 1776 0
169 -172 1776 0
-171 1776 0
-73 74 75 -76 -1777 0
-73 -74 -75 -76 -1777 0
-74 75 1777 0
74 -75 1777 0
73 1777 0
76 1777 0
73 -74 75 76 -1778 0
-73 74 75 -76 -1778 0
-73 -74 1778 0
-73 76 1778 0
73 74 1778 0
73 -76 1778 0
-75 1778 0
-77 78 1011 -1012 -1779 0
-77 -78 -1011 -1012 -1779 0
-78 1011 1779 0
78 -1011 1779 0
77 1779 0
1012 1779 0
77 -78 1011 1012 -1780 0
-77 78 1011 -1012 -1780 0
-77 -78 1780 0
-77 1012 1780 0
77 78 1780 0
77 -1012 1780 0
-1011 1780 0
-1303 1304 1287 -1288 -1781 0
-1303 -1304 -1287 -1288 -1781 0
-1304 1287 1781 0
1304 -1287 1781 0
1303 1781 0
1288 1781 0
1303 -1304 1287 1288 -1782 0
-1303 1304 1287 -1288 -1782 0
-1303 -1304 1782 0
-1303 1288 1782 0
1303 1304 1782 0
1303 -1288 1782 0
-1287 1782 0
-71 72 1287 -1288 -1783 0
-71 -72 -1287 -1288 -1783 0
-72 1287 1783 0
72 -1287 1783 0
71 1783 0
1288 1783 0
71 -72 1287 1288 -1784 0
-71 72 1287 -1288 -1784 0
-71 -72 1784 0
-71 1288 1784 0
71 72 1784 0
71 -1288 1784 0
-1287 1784 0
-71 72 1291 -1292 -1785 0
-71 -72 -1291 -1292 -1785 0
-72 1291 1785 0
72 -1291 1785 0
71 1785 0
1292 1785 0
71 -72 1291 1292 -1786 0
-71 72 1291 -1292 -1786 0
-71 -72 1786 0
-71 1292 1786 0
71 72 1786 0
71 -1292 1786 0
-1291 1786 0
-987 988 1303 -1304 -1787 0
-987 -988 -1303 -1304 -1787 0
-988 1303 1787 0
988 -1303 1787 0
987 1787 0
1304 1787 0
987 -988 1303 1304 -1788 0
-987 988 1303 -1304 -1788 0
-987 -988 1788 0
-987 1304 1788 0
987 988 1788 0
987 -1304 1788 0
-1303 1788 0
-67 68 91 -92 -1789 0
-67 -68 -91 -92 -1789 0
-68 91 1789 0
68 -91 1789 0
67 1789 0
92 1789 0
67 -68 91 92 -1790 0
-67 68 91 -92 -1790 0
-67 -68 1790 0
-67 92 1790 0
67 68 1790 0
67 -92 1790 0
-91 1790 0
-2255 2256 2261 -2262 -1791 0
-2255 -2256 -2261 -2262 -1791 0
-2256 2261 1791 0
2256 -2261 1791 0
2255 1791 0
2262 1791 0
2255 -2256 2261 2262 -1792 0
-2255 2256 2261 -2262 -1792 0
-2255 -2256 1792 0
-2255 2262 1792 0
2255 2256 1792 0
2255 -2262 1792 0
-2261 1792 0
-2265 2266 2271 -2272 -1793 0
-2265 -2266 -2271 -2272 -1793 0
-2266 2271 1793 0
2266 -2271 1793 0
2265 1793 0
2272 1793 0
2265 -2266 2271 2272 -1794 0
-2265 2266 2271 -2272 -1794 0
-2265 -2266 1794 0
-2265 2272 1794 0
2265 2266 1794 0
2265 -2272 1794 0
-2271 1794 0
-2273 2274 2279 -2280 -1795 0
-2273 -2274 -2279 -2280 -1795 0
-2274 2279 1795 0
2274 -2279 1795 0
2273 1795 0
2280 1795 0
2273 -2274 2279 2280 -1796 0
-2273 2274 2279 -2280 -1796 0
-2273 -2274 1796 0
-2273 2280 1796 0
2273 2274 1796 0
2273 -2280 1796 0
-2279 1796 0
-2281 2282 2287 -2288 -1797 0
-2281 -2282 -2287 -2288 -1797 0
-2282 2287 1797 0
2282 -2287 1797 0
2281 1797 0
2288 1797 0
2281 -2282 2287 2288 -1798 0
-2281 2282 2287 -2288 -1798 0
-2281 -2282 1798 0
-2281 2288 1798 0
2281 2282 1798 0
2281 -2288 1798 0
-2287 1798 0
-97 98 103 -104 -1799 0
-97 -98 -103 -104 -1799 0
-98 103 1799 0
98 -103 1799 0
97 1799 0
104 1799 0
97 -98 103 104 -1800 0
-97 98 103 -104 -1800 0
-97 -98 1800 0
-97 104 1800 0
97 98 1800 0
97 -104 1800 0
-103 1800 0
-2289 2290 2291 -2292 -1801 0
-2289 -2290 -2291 -2292 -1801 0
-2290 2291 1801 0
2290 -2291 1801 0
2289 1801 0
2292 1801 0
2289 -2290 2291 2292 -1802 0
-2289 2290 2291 -2292 -1802 0
-2289 -2290 1802 0
-2289 2292 1802 0
2289 2290 1802 0
2289 -2292 1802 0
-2291 1802 0
-1799 1800 1801 -1802 -1803 0
-1799 -1800 -1801 -1802 -1803 0
-1800 1801 1803 0
1800 -1801 1803 0
1799 1803 0
1802 1803 0
1799 -1800 1801 1802 -1804 0
-1799 1800 1801 -1802 -1804 0
-1799 -1800 1804 0
-1799 1802 1804 0
1799 1800 1804 0
1799 -1802 1804 0
-1801 1804 0
-207 208 209 -210 -1805 0
-207 -208 -209 -210 -1805 0
-208 209 1805 0
208 -209 1805 0
207 1805 0
210 1805 0
207 -208 209 210 -1806 0
-207 208 209 -210 -1806 0
-207 -208 1806 0
-207 210 1806 0
207 208 1806 0
207 -210 1806 0
-209 1806 0
-75 76 197 -198 -1807 0
-75 -76 -197 -198 -1807 0
-76 197 1807 0
76 -197 1807 0
75 1807 0
198 1807 0
75 -76 197 198 -1808 0
-75 76 197 -198 -1808 0
-75 -76 1808 0
-75 198 1808 0
75 76 1808 0
75 -198 1808 0
-197 1808 0
-1667 1668 1807 -1808 -1809 0
-1667 -1668 -1807 -1808 -1809 0
-1668 1807 1809 0
1668 -1807 1809 0
1667 1809 0
1808 1809 0
1667 -1668 1807 1808 -1810 0
-1667 1668 1807 -1808 -1810 0
-1667 -1668 1810 0
-1667 1808 1810 0
1667 1668 1810 0
1667 -1808 1810 0
-1807 1810 0
-2169 2170 2173 -2174 -1811 0
-2169 -2170 -2173 -2174 -1811 0
-2170 2173 1811 0
2170 -2173 1811 0
2169 1811 0
2174 1811 0
2169 -2170 2173 2174 -1812 0
-2169 2170 2173 -2174 -1812 0
-2169 -2170 1812 0
-2169 2174 1812 0
2169 2170 1812 0
2169 -2174 1812 0
-2173 1812 0
-179 180 1811 -1812 -1813 0
-179 -180 -1811 -1812 -1813 0
-180 1811 1813 0
180 -1811 1813 0
179 1813 0
1812 1813 0
179 -180 1811 1812 -1814 0
-179 180 1811 -1812 -1814 0
-179 -180 1814 0
-179 1812 1814 0
179 180 1814 0
179 -1812 1814 0
-1811 1814 0
-31 32 33 -34 -1815 0
-31 -32 -33 -34 -1815 0
-32 33 1815 0
32 -33 1815 0
31 1815 0
34 1815 0
31 -32 33 34 -1816 0
-31 32 33 -34 -1816 0
-31 -32 1816 0
-31 34 1816 0
31 32 1816 0
31 -34 1816 0
-33 1816 0
-179 180 1815 -1816 -1817 0
-179 -180 -1815 -1816 -1817 0
-180 1815 1817 0
180 -1815 1817 0
179 1817 0
1816 1817 0
179 -180 1815 1816 -1818 0
-179 180 1815 -1816 -1818 0
-179 -180 1818 0
-179 1816 1818 0
179 180 1818 0
179 -1816 1818 0
-1815 1818 0
-187 188 989 -990 -1819 0
-187 -188 -989 -990 -1819 0
-188 989 1819 0
188 -989 1819 0
187 1819 0
990 1819 0
187 -188 989 990 -1820 0
-187 188 989 -990 -1820 0
-187 -188 1820 0
-187 990 1820 0
187 188 1820 0
187 -990 1820 0
-989 1820 0
-33 34 2743 -2744 -1821 0
-33 -34 -2743 -2744 -1821 0
-34 2743 1821 0
34 -2743 1821 0
33 1821 0
2744 1821 0
33 -34 2743 2744 -1822 0
-33 34 2743 -2744 -1822 0
-33 -34 1822 0
-33 2744 1822 0
33 34 1822 0
33 -2744 1822 0
-2743 1822 0
-989 990 2745 -2746 -1823 0
-989 -990 -2745 -2746 -1823 0
-990 2745 1823 0
990 -2745 1823 0
989 1823 0
2746 1823 0
989 -990 2745 2746 -1824 0
-989 990 2745 -2746 -1824 0
-989 -990 1824 0
-989 2746 1824 0
989 990 1824 0
989 -2746 1824 0
-2745 1824 0
-1821 1822 1823 -1824 -1825 0
-1821 -1822 -1823 -1824 -1825 0
-1822 1823 1825 0
1822 -1823 1825 0
1821 1825 0
1824 1825 0
1821 -1822 1823 1824 -1826 0
-1821 1822 1823 -1824 -1826 0
-1821 -1822 1826 0
-1821 1824 1826 0
1821 1822 1826 0
1821 -1824 1826 0
-1823 1826 0
-33 34 2747 -2748 -1827 0
-33 -34 -2747 -2748 -1827 0
-34 2747 1827 0
34 -2747 1827 0
33 1827 0
2748 1827 0
33 -34 2747 2748 -1828 0
-33 34 2747 -2748 -1828 0
-33 -34 1828 0
-33 2748 1828 0
33 34 1828 0
33 -2748 1828 0
-2747 1828 0
-989 990 2749 -2750 -1829 0
-989 -990 -2749 -2750 -1829 0
-990 2749 1829 0
990 -2749 1829 0
989 1829 0
2750 1829 0
989 -990 2749 2750 -1830 0
-989 990 2749 -2750 -1830 0
-989 -990 1830 0
-989 2750 1830 0
989 990 1830 0
989 -2750 1830 0
-2749 1830 0
-1827 1828 1829 -1830 -1831 0
-1827 -1828 -1829 -1830 -1831 0
-1828 1829 1831 0
1828 -1829 1831 0
1827 1831 0
1830 1831 0
1827 -1828 1829 1830 -1832 0
-1827 1828 1829 -1830 -1832 0
-1827 -1828 1832 0
-1827 1830 1832 0
1827 1828 1832 0
1827 -1830 1832 0
-1829 1832 0
-149 150 151 -152 -1833 0
-149 -150 -151 -152 -1833 0
-150 151 1833 0
150 -151 1833 0
149 1833 0
152 1833 0
149 -150 151 152 -1834 0
-149 150 151 -152 -1834 0
-149 -150 1834 0
-149 152 1834 0
149 150 1834 0
149 -152 1834 0
-151 1834 0
-153 154 1833 -1834 -1835 0
-153 -154 -1833 -1834 -1835 0
-154 1833 1835 0
154 -1833 1835 0
153 1835 0
1834 1835 0
153 -154 1833 1834 -1836 0
-153 154 1833 -1834 -1836 0
-153 -154 1836 0
-153 1834 1836 0
153 154 1836 0
153 -1834 1836 0
-1833 1836 0
-181 182 989 -990 -1837 0
-181 -182 -989 -990 -1837 0
-182 989 1837 0
182 -989 1837 0
181 1837 0
990 1837 0
181 -182 989 990 -1838 0
-181 182 989 -990 -1838 0
-181 -182 1838 0
-181 990 1838 0
181 182 1838 0
181 -990 1838 0
-989 1838 0
-29 30 31 -32 -1839 0
-29 -30 -31 -32 -1839 0
-30 31 1839 0
30 -31 1839 0
29 1839 0
32 1839 0
29 -30 31 32 -1840 0
-29 30 31 -32 -1840 0
-29 -30 1840 0
-29 32 1840 0
29 30 1840 0
29 -32 1840 0
-31 1840 0
-47 48 49 -50 -1841 0
-47 -48 -49 -50 -1841 0
-48 49 1841 0
48 -49 1841 0
47 1841 0
50 1841 0
47 -48 49 50 -1842 0
-47 48 49 -50 -1842 0
-47 -48 1842 0
-47 50 1842 0
47 48 1842 0
47 -50 1842 0
-49 1842 0
-31 32 181 -182 -1843 0
-31 -32 -181 -182 -1843 0
-32 181 1843 0
32 -181 1843 0
31 1843 0
182 1843 0
31 -32 181 182 -1844 0
-31 32 181 -182 -1844 0
-31 -32 1844 0
-31 182 1844 0
31 32 1844 0
31 -182 1844 0
-181 1844 0
-187 188 189 -190 -1845 0
-187 -188 -189 -190 -1845 0
-188 189 1845 0
188 -189 1845 0
187 1845 0
190 1845 0
187 -188 189 190 -1846 0
-187 188 189 -190 -1846 0
-187 -188 1846 0
-187 190 1846 0
187 188 1846 0
187 -190 1846 0
-189 1846 0
-1843 1844 1845 -1846 -1847 0
-1843 -1844 -1845 -1846 -1847 0
-1844 1845 1847 0
1844 -1845 1847 0
1843 1847 0
1846 1847 0
1843 -1844 1845 1846 -1848 0
-1843 1844 1845 -1846 -1848 0
-1843 -1844 1848 0
-1843 1846 1848 0
1843 1844 1848 0
1843 -1846 1848 0
-1845 1848 0
-83 84 85 -86 -1849 0
-83 -84 -85 -86 -1849 0
-84 85 1849 0
84 -85 1849 0
83 1849 0
86 1849 0
83 -84 85 86 -1850 0
-83 84 85 -86 -1850 0
-83 -84 1850 0
-83 86 1850 0
83 84 1850 0
83 -86 1850 0
-85 1850 0
-83 84 85 -86 -1851 0
-83 -84 -85 -86 -1851 0
-84 85 1851 0
84 -85 1851 0
83 1851 0
86 1851 0
83 -84 85 86 -1852 0
-83 84 85 -86 -1852 0
-83 -84 1852 0
-83 86 1852 0
83 84 1852 0
83 -86 1852 0
-85 1852 0
-87 88 189 -190 -1853 0
-87 -88 -189 -190 -1853 0
-88 189 1853 0
88 -189 1853 0
87 1853 0
190 1853 0
87 -88 189 190 -1854 0
-87 88 189 -190 -1854 0
-87 -88 1854 0
-87 190 1854 0
87 88 1854 0
87 -190 1854 0
-189 1854 0
-87 88 187 -188 -1855 0
-87 -88 -187 -188 -1855 0
-88 187 1855 0
88 -187 1855 0
87 1855 0
188 1855 0
87 -88 187 188 -1856 0
-87 88 187 -188 -1856 0
-87 -88 1856 0
-87 188 1856 0
87 88 1856 0
87 -188 1856 0
-187 1856 0
-87 88 179 -180 -1857 0
-87 -88 -179 -180 -1857 0
-88 179 1857 0
88 -179 1857 0
87 1857 0
180 1857 0
87 -88 179 180 -1858 0
-87 88 179 -180 -1858 0
-87 -88 1858 0
-87 180 1858 0
87 88 1858 0
87 -180 1858 0
-179 1858 0
-177 178 181 -182 -1859 0
-177 -178 -181 -182 -1859 0
-178 181 1859 0
178 -181 1859 0
177 1859 0
182 1859 0
177 -178 181 182 -1860 0
-177 178 181 -182 -1860 0
-177 -178 1860 0
-177 182 1860 0
177 178 1860 0
177 -182 1860 0
-181 1860 0
-177 178 181 -182 -1861 0
-177 -178 -181 -182 -1861 0
-178 181 1861 0
178 -181 1861 0
177 1861 0
182 1861 0
177 -178 181 182 -1862 0
-177 178 181 -182 -1862 0
-177 -178 1862 0
-177 182 1862 0
177 178 1862 0
177 -182 1862 0
-181 1862 0
-2293 2294 2295 -2296 -1863 0
-2293 -2294 -2295 -2296 -1863 0
-2294 2295 1863 0
2294 -2295 1863 0
2293 1863 0
2296 1863 0
2293 -2294 2295 2296 -1864 0
-2293 2294 2295 -2296 -1864 0
-2293 -2294 1864 0
-2293 2296 1864 0
2293 2294 1864 0
2293 -2296 1864 0
-2295 1864 0
-2297 2298 2299 -2300 -1865 0
-2297 -2298 -2299 -2300 -1865 0
-2298 2299 1865 0
2298 -2299 1865 0
2297 1865 0
2300 1865 0
2297 -2298 2299 2300 -1866 0
-2297 2298 2299 -2300 -1866 0
-2297 -2298 1866 0
-2297 2300 1866 0
2297 2298 1866 0
2297 -2300 1866 0
-2299 1866 0
-1863 1864 1865 -1866 -1867 0
-1863 -1864 -1865 -1866 -1867 0
-1864 1865 1867 0
1864 -1865 1867 0
1863 1867 0
1866 1867 0
1863 -1864 1865 1866 -1868 0
-1863 1864 1865 -1866 -1868 0
-1863 -1864 1868 0
-1863 1866 1868 0
1863 1864 1868 0
1863 -1866 1868 0
-1865 1868 0
-1949 1950 1951 -1952 -1869 0
-1949 -1950 -1951 -1952 -1869 0
-1950 1951 1869 0
1950 -1951 1869 0
1949 1869 0
1952 1869 0
1949 -1950 1951 1952 -1870 0
-1949 1950 1951 -1952 -1870 0
-1949 -1950 1870 0
-1949 1952 1870 0
1949 1950 1870 0
1949 -1952 1870 0
-1951 1870 0
-1953 1954 1955 -1956 -1871 0
-1953 -1954 -1955 -1956 -1871 0
-1954 1955 1871 0
1954 -1955 1871 0
1953 1871 0
1956 1871 0
1953 -1954 1955 1956 -1872 0
-1953 1954 1955 -1956 -1872 0
-1953 -1954 1872 0
-1953 1956 1872 0
1953 1954 1872 0
1953 -1956 1872 0
-1955 1872 0
-223 224 225 -226 -1873 0
-223 -224 -225 -226 -1873 0
-224 225 1873 0
224 -225 1873 0
223 1873 0
226 1873 0
223 -224 225 226 -1874 0
-223 224 225 -226 -1874 0
-223 -224 1874 0
-223 226 1874 0
223 224 1874 0
223 -226 1874 0
-225 1874 0
-2303 2304 2317 -2318 -1875 0
-2303 -2304 -2317 -2318 -1875 0
-2304 2317 1875 0
2304 -2317 1875 0
2303 1875 0
2318 1875 0
2303 -2304 2317 2318 -1876 0
-2303 2304 2317 -2318 -1876 0
-2303 -2304 1876 0
-2303 2318 1876 0
2303 2304 1876 0
2303 -2318 1876 0
-2317 1876 0
-2319 2320 2327 -2328 -1877 0
-2319 -2320 -2327 -2328 -1877 0
-2320 2327 1877 0
2320 -2327 1877 0
2319 1877 0
2328 1877 0
2319 -2320 2327 2328 -1878 0
-2319 2320 2327 -2328 -1878 0
-2319 -2320 1878 0
-2319 2328 1878 0
2319 2320 1878 0
2319 -2328 1878 0
-2327 1878 0
-1875 1876 1877 -1878 -1879 0
-1875 -1876 -1877 -1878 -1879 0
-1876 1877 1879 0
1876 -1877 1879 0
1875 1879 0
1878 1879 0
1875 -1876 1877 1878 -1880 0
-1875 1876 1877 -1878 -1880 0
-1875 -1876 1880 0
-1875 1878 1880 0
1875 1876 1880 0
1875 -1878 1880 0
-1877 1880 0
-67 68 89 -90 -1881 0
-67 -68 -89 -90 -1881 0
-68 89 1881 0
68 -89 1881 0
67 1881 0
90 1881 0
67 -68 89 90 -1882 0
-67 68 89 -90 -1882 0
-67 -68 1882 0
-67 90 1882 0
67 68 1882 0
67 -90 1882 0
-89 1882 0
-207 208 1897 -1898 -1883 0
-207 -208 -1897 -1898 -1883 0
-208 1897 1883 0
208 -1897 1883 0
207 1883 0
1898 1883 0
207 -208 1897 1898 -1884 0
-207 208 1897 -1898 -1884 0
-207 -208 1884 0
-207 1898 1884 0
207 208 1884 0
207 -1898 1884 0
-1897 1884 0
-1401 1402 1883 -1884 -1885 0
-1401 -1402 -1883 -1884 -1885 0
-1402 1883 1885 0
1402 -1883 1885 0
1401 1885 0
1884 1885 0
1401 -1402 1883 1884 -1886 0
-1401 1402 1883 -1884 -1886 0
-1401 -1402 1886 0
-1401 1884 1886 0
1401 1402 1886 0
1401 -1884 1886 0
-1883 1886 0
-207 208 1879 -1880 -1887 0
-207 -208 -1879 -1880 -1887 0
-208 1879 1887 0
208 -1879 1887 0
207 1887 0
1880 1887 0
207 -208 1879 1880 -1888 0
-207 208 1879 -1880 -1888 0
-207 -208 1888 0
-207 1880 1888 0
207 208 1888 0
207 -1880 1888 0
-1879 1888 0
-1401 1402 1887 -1888 -1889 0
-1401 -1402 -1887 -1888 -1889 0
-1402 1887 1889 0
1402 -1887 1889 0
1401 1889 0
1888 1889 0
1401 -1402 1887 1888 -1890 0
-1401 1402 1887 -1888 -1890 0
-1401 -1402 1890 0
-1401 1888 1890 0
1401 1402 1890 0
1401 -1888 1890 0
-1887 1890 0
-41 42 89 -90 -1891 0
-41 -42 -89 -90 -1891 0
-42 89 1891 0
42 -89 1891 0
41 1891 0
90 1891 0
41 -42 89 90 -1892 0
-41 42 89 -90 -1892 0
-41 -42 1892 0
-41 90 1892 0
41 42 1892 0
41 -90 1892 0
-89 1892 0
-223 224 225 -226 -1893 0
-223 -224 -225 -226 -1893 0
-224 225 1893 0
224 -225 1893 0
223 1893 0
226 1893 0
223 -224 225 226 -1894 0
-223 224 225 -226 -1894 0
-223 -224 1894 0
-223 226 1894 0
223 224 1894 0
223 -226 1894 0
-225 1894 0
-223 224 225 -226 -1895 0
-223 -224 -225 -226 -1895 0
-224 225 1895 0
224 -225 1895 0
223 1895 0
226 1895 0
223 -224 225 226 -1896 0
-223 224 225 -226 -1896 0
-223 -224 1896 0
-223 226 1896 0
223 224 1896 0
223 -226 1896 0
-225 1896 0
-1893 1894 1895 -1896 -1897 0
-1893 -1894 -1895 -1896 -1897 0
-1894 1895 1897 0
1894 -1895 1897 0
1893 1897 0
1896 1897 0
1893 -1894 1895 1896 -1898 0
-1893 1894 1895 -1896 -1898 0
-1893 -1894 1898 0
-1893 1896 1898 0
1893 1894 1898 0
1893 -1896 1898 0
-1895 1898 0
-207 208 1879 -1880 -1899 0
-207 -208 -1879 -1880 -1899 0
-208 1879 1899 0
208 -1879 1899 0
207 1899 0
1880 1899 0
207 -208 1879 1880 -1900 0
-207 208 1879 -1880 -1900 0
-207 -208 1900 0
-207 1880 1900 0
207 208 1900 0
207 -1880 1900 0
-1879 1900 0
-2689 2690 2691 -2692 -1901 0
-2689 -2690 -2691 -2692 -1901 0
-2690 2691 1901 0
2690 -2691 1901 0
2689 1901 0
2692 1901 0
2689 -2690 2691 2692 -1902 0
-2689 2690 2691 -2692 -1902 0
-2689 -2690 1902 0
-2689 2692 1902 0
2689 2690 1902 0
2689 -2692 1902 0
-2691 1902 0
-2695 2696 2697 -2698 -1903 0
-2695 -2696 -2697 -2698 -1903 0
-2696 2697 1903 0
2696 -2697 1903 0
2695 1903 0
2698 1903 0
2695 -2696 2697 2698 -1904 0
-2695 2696 2697 -2698 -1904 0
-2695 -2696 1904 0
-2695 2698 1904 0
2695 2696 1904 0
2695 -2698 1904 0
-2697 1904 0
-1901 1902 1903 -1904 -1905 0
-1901 -1902 -1903 -1904 -1905 0
-1902 1903 1905 0
1902 -1903 1905 0
1901 1905 0
1904 1905 0
1901 -1902 1903 1904 -1906 0
-1901 1902 1903 -1904 -1906 0
-1901 -1902 1906 0
-1901 1904 1906 0
1901 1902 1906 0
1901 -1904 1906 0
-1903 1906 0
-2701 2702 2703 -2704 -1907 0
-2701 -2702 -2703 -2704 -1907 0
-2702 2703 1907 0
2702 -2703 1907 0
2701 1907 0
2704 1907 0
2701 -2702 2703 2704 -1908 0
-2701 2702 2703 -2704 -1908 0
-2701 -2702 1908 0
-2701 2704 1908 0
2701 2702 1908 0
2701 -2704 1908 0
-2703 1908 0
-2707 2708 2709 -2710 -1909 0
-2707 -2708 -2709 -2710 -1909 0
-2708 2709 1909 0
2708 -2709 1909 0
2707 1909 0
2710 1909 0
2707 -2708 2709 2710 -1910 0
-2707 2708 2709 -2710 -1910 0
-2707 -2708 1910 0
-2707 2710 1910 0
2707 2708 1910 0
2707 -2710 1910 0
-2709 1910 0
-1907 1908 1909 -1910 -1911 0
-1907 -1908 -1909 -1910 -1911 0
-1908 1909 1911 0
1908 -1909 1911 0
1907 1911 0
1910 1911 0
1907 -1908 1909 1910 -1912 0
-1907 1908 1909 -1910 -1912 0
-1907 -1908 1912 0
-1907 1910 1912 0
1907 1908 1912 0
1907 -1910 1912 0
-1909 1912 0
-209 210 2723 -2724 -1913 0
-209 -210 -2723 -2724 -1913 0
-210 2723 1913 0
210 -2723 1913 0
209 1913 0
2724 1913 0
209 -210 2723 2724 -1914 0
-209 210 2723 -2724 -1914 0
-209 -210 1914 0
-209 2724 1914 0
209 210 1914 0
209 -2724 1914 0
-2723 1914 0
-1469 1470 1879 -1880 -1915 0
-1469 -1470 -1879 -1880 -1915 0
-1470 1879 1915 0
1470 -1879 1915 0
1469 1915 0
1880 1915 0
1469 -1470 1879 1880 -1916 0
-1469 1470 1879 -1880 -1916 0
-1469 -1470 1916 0
-1469 1880 1916 0
1469 1470 1916 0
1469 -1880 1916 0
-1879 1916 0
-1913 1914 1915 -1916 -1917 0
-1913 -1914 -1915 -1916 -1917 0
-1914 1915 1917 0
1914 -1915 1917 0
1913 1917 0
1916 1917 0
1913 -1914 1915 1916 -1918 0
-1913 1914 1915 -1916 -1918 0
-1913 -1914 1918 0
-1913 1916 1918 0
1913 1914 1918 0
1913 -1916 1918 0
-1915 1918 0
-2713 2714 2715 -2716 -1919 0
-2713 -2714 -2715 -2716 -1919 0
-2714 2715 1919 0
2714 -2715 1919 0
2713 1919 0
2716 1919 0
2713 -2714 2715 2716 -1920 0
-2713 2714 2715 -2716 -1920 0
-2713 -2714 1920 0
-2713 2716 1920 0
2713 2714 1920 0
2713 -2716 1920 0
-2715 1920 0
-2719 2720 2721 -2722 -1921 0
-2719 -2720 -2721 -2722 -1921 0
-2720 2721 1921 0
2720 -2721 1921 0
2719 1921 0
2722 1921 0
2719 -2720 2721 2722 -1922 0
-2719 2720 2721 -2722 -1922 0
-2719 -2720 1922 0
-2719 2722 1922 0
2719 2720 1922 0
2719 -2722 1922 0
-2721 1922 0
-1919 1920 1921 -1922 -1923 0
-1919 -1920 -1921 -1922 -1923 0
-1920 1921 1923 0
1920 -1921 1923 0
1919 1923 0
1922 1923 0
1919 -1920 1921 1922 -1924 0
-1919 1920 1921 -1922 -1924 0
-1919 -1920 1924 0
-1919 1922 1924 0
1919 1920 1924 0
1919 -1922 1924 0
-1921 1924 0
-207 208 209 -210 -1925 0
-207 -208 -209 -210 -1925 0
-208 209 1925 0
208 -209 1925 0
207 1925 0
210 1925 0
207 -208 209 210 -1926 0
-207 208 209 -210 -1926 0
-207 -208 1926 0
-207 210 1926 0
207 208 1926 0
207 -210 1926 0
-209 1926 0
-1879 1880 1401 -1402 -1927 0
-1879 -1880 -1401 -1402 -1927 0
-1880 1401 1927 0
1880 -1401 1927 0
1879 1927 0
1402 1927 0
1879 -1880 1401 1402 -1928 0
-1879 1880 1401 -1402 -1928 0
-1879 -1880 1928 0
-1879 1402 1928 0
1879 1880 1928 0
1879 -1402 1928 0
-1401 1928 0
-1925 1926 1927 -1928 -1929 0
-1925 -1926 -1927 -1928 -1929 0
-1926 1927 1929 0
1926 -1927 1929 0
1925 1929 0
1928 1929 0
1925 -1926 1927 1928 -1930 0
-1925 1926 1927 -1928 -1930 0
-1925 -1926 1930 0
-1925 1928 1930 0
1925 1926 1930 0
1925 -1928 1930 0
-1927 1930 0
-2727 2728 2729 -2730 -1931 0
-2727 -2728 -2729 -2730 -1931 0
-2728 2729 1931 0
2728 -2729 1931 0
2727 1931 0
2730 1931 0
2727 -2728 2729 2730 -1932 0
-2727 2728 2729 -2730 -1932 0
-2727 -2728 1932 0
-2727 2730 1932 0
2727 2728 1932 0
2727 -2730 1932 0
-2729 1932 0
-2731 2732 2733 -2734 -1933 0
-2731 -2732 -2733 -2734 -1933 0
-2732 2733 1933 0
2732 -2733 1933 0
2731 1933 0
2734 1933 0
2731 -2732 2733 2734 -1934 0
-2731 2732 2733 -2734 -1934 0
-2731 -2732 1934 0
-2731 2734 1934 0
2731 2732 1934 0
2731 -2734 1934 0
-2733 1934 0
-1931 1932 1933 -1934 -1935 0
-1931 -1932 -1933 -1934 -1935 0
-1932 1933 1935 0
1932 -1933 1935 0
1931 1935 0
1934 1935 0
1931 -1932 1933 1934 -1936 0
-1931 1932 1933 -1934 -1936 0
-1931 -1932 1936 0
-1931 1934 1936 0
1931 1932 1936 0
1931 -1934 1936 0
-1933 1936 0
-1879 1880 1897 -1898 -1937 0
-1879 -1880 -1897 -1898 -1937 0
-1880 1897 1937 0
1880 -1897 1937 0
1879 1937 0
1898 1937 0
1879 -1880 1897 1898 -1938 0
-1879 1880 1897 -1898 -1938 0
-1879 -1880 1938 0
-1879 1898 1938 0
1879 1880 1938 0
1879 -1898 1938 0
-1897 1938 0
-2735 2736 2737 -2738 -1939 0
-2735 -2736 -2737 -2738 -1939 0
-2736 2737 1939 0
2736 -2737 1939 0
2735 1939 0
2738 1939 0
2735 -2736 2737 2738 -1940 0
-2735 2736 2737 -2738 -1940 0
-2735 -2736 1940 0
-2735 2738 1940 0
2735 2736 1940 0
2735 -2738 1940 0
-2737 1940 0
-2739 2740 2741 -2742 -1941 0
-2739 -2740 -2741 -2742 -1941 0
-2740 2741 1941 0
2740 -2741 1941 0
2739 1941 0
2742 1941 0
2739 -2740 2741 2742 -1942 0
-2739 2740 2741 -2742 -1942 0
-2739 -2740 1942 0
-2739 2742 1942 0
2739 2740 1942 0
2739 -2742 1942 0
-2741 1942 0
-1939 1940 1941 -1942 -1943 0
-1939 -1940 -1941 -1942 -1943 0
-1940 1941 1943 0
1940 -1941 1943 0
1939 1943 0
1942 1943 0
1939 -1940 1941 1942 -1944 0
-1939 1940 1941 -1942 -1944 0
-1939 -1940 1944 0
-1939 1942 1944 0
1939 1940 1944 0
1939 -1942 1944 0
-1941 1944 0
-81 82 213 -214 -1945 0
-81 -82 -213 -214 -1945 0
-82 213 1945 0
82 -213 1945 0
81 1945 0
214 1945 0
81 -82 213 214 -1946 0
-81 82 213 -214 -1946 0
-81 -82 1946 0
-81 214 1946 0
81 82 1946 0
81 -214 1946 0
-213 1946 0
-81 82 211 -212 -1947 0
-81 -82 -211 -212 -1947 0
-82 211 1947 0
82 -211 1947 0
81 1947 0
212 1947 0
81 -82 211 212 -1948 0
-81 82 211 -212 -1948 0
-81 -82 1948 0
-81 212 1948 0
81 82 1948 0
81 -212 1948 0
-211 1948 0
-2333 2334 2339 -2340 -1949 0
-2333 -2334 -2339 -2340 -1949 0
-2334 2339 1949 0
2334 -2339 1949 0
2333 1949 0
2340 1949 0
2333 -2334 2339 2340 -1950 0
-2333 2334 2339 -2340 -1950 0
-2333 -2334 1950 0
-2333 2340 1950 0
2333 2334 1950 0
2333 -2340 1950 0
-2339 1950 0
-2345 2346 2351 -2352 -1951 0
-2345 -2346 -2351 -2352 -1951 0
-2346 2351 1951 0
2346 -2351 1951 0
2345 1951 0
2352 1951 0
2345 -2346 2351 2352 -1952 0
-2345 2346 2351 -2352 -1952 0
-2345 -2346 1952 0
-2345 2352 1952 0
2345 2346 1952 0
2345 -2352 1952 0
-2351 1952 0
-2357 2358 2363 -2364 -1953 0
-2357 -2358 -2363 -2364 -1953 0
-2358 2363 1953 0
2358 -2363 1953 0
2357 1953 0
2364 1953 0
2357 -2358 2363 2364 -1954 0
-2357 2358 2363 -2364 -1954 0
-2357 -2358 1954 0
-2357 2364 1954 0
2357 2358 1954 0
2357 -2364 1954 0
-2363 1954 0
-2369 2370 2375 -2376 -1955 0
-2369 -2370 -2375 -2376 -1955 0
-2370 2375 1955 0
2370 -2375 1955 0
2369 1955 0
2376 1955 0
2369 -2370 2375 2376 -1956 0
-2369 2370 2375 -2376 -1956 0
-2369 -2370 1956 0
-2369 2376 1956 0
2369 2370 1956 0
2369 -2376 1956 0
-2375 1956 0
-213 214 1469 -1470 -1957 0
-213 -214 -1469 -1470 -1957 0
-214 1469 1957 0
214 -1469 1957 0
213 1957 0
1470 1957 0
213 -214 1469 1470 -1958 0
-213 214 1469 -1470 -1958 0
-213 -214 1958 0
-213 1470 1958 0
213 214 1958 0
213 -1470 1958 0
-1469 1958 0
-1401 1402 1397 -1398 -1959 0
-1401 -1402 -1397 -1398 -1959 0
-1402 1397 1959 0
1402 -1397 1959 0
1401 1959 0
1398 1959 0
1401 -1402 1397 1398 -1960 0
-1401 1402 1397 -1398 -1960 0
-1401 -1402 1960 0
-1401 1398 1960 0
1401 1402 1960 0
1401 -1398 1960 0
-1397 1960 0
-211 212 213 -214 -1961 0
-211 -212 -213 -214 -1961 0
-212 213 1961 0
212 -213 1961 0
211 1961 0
214 1961 0
211 -212 213 214 -1962 0
-211 212 213 -214 -1962 0
-211 -212 1962 0
-211 214 1962 0
211 212 1962 0
211 -214 1962 0
-213 1962 0
-1401 1402 1397 -1398 -1963 0
-1401 -1402 -1397 -1398 -1963 0
-1402 1397 1963 0
1402 -1397 1963 0
1401 1963 0
1398 1963 0
1401 -1402 1397 1398 -1964 0
-1401 1402 1397 -1398 -1964 0
-1401 -1402 1964 0
-1401 1398 1964 0
1401 1402 1964 0
1401 -1398 1964 0
-1397 1964 0
-101 102 2377 -2378 -1965 0
-101 -102 -2377 -2378 -1965 0
-102 2377 1965 0
102 -2377 1965 0
101 1965 0
2378 1965 0
101 -102 2377 2378 -1966 0
-101 102 2377 -2378 -1966 0
-101 -102 1966 0
-101 2378 1966 0
101 102 1966 0
101 -2378 1966 0
-2377 1966 0
-103 104 145 -146 -1967 0
-103 -104 -145 -146 -1967 0
-104 145 1967 0
104 -145 1967 0
103 1967 0
146 1967 0
103 -104 145 146 -1968 0
-103 104 145 -146 -1968 0
-103 -104 1968 0
-103 146 1968 0
103 104 1968 0
103 -146 1968 0
-145 1968 0
-101 102 2379 -2380 -1969 0
-101 -102 -2379 -2380 -1969 0
-102 2379 1969 0
102 -2379 1969 0
101 1969 0
2380 1969 0
101 -102 2379 2380 -1970 0
-101 102 2379 -2380 -1970 0
-101 -102 1970 0
-101 2380 1970 0
101 102 1970 0
101 -2380 1970 0
-2379 1970 0
-103 104 145 -146 -1971 0
-103 -104 -145 -146 -1971 0
-104 145 1971 0
104 -145 1971 0
103 1971 0
146 1971 0
103 -104 145 146 -1972 0
-103 104 145 -146 -1972 0
-103 -104 1972 0
-103 146 1972 0
103 104 1972 0
103 -146 1972 0
-145 1972 0
-101 102 2381 -2382 -1973 0
-101 -102 -2381 -2382 -1973 0
-102 2381 1973 0
102 -2381 1973 0
101 1973 0
2382 1973 0
101 -102 2381 2382 -1974 0
-101 102 2381 -2382 -1974 0
-101 -102 1974 0
-101 2382 1974 0
101 102 1974 0
101 -2382 1974 0
-2381 1974 0
-103 104 145 -146 -1975 0
-103 -104 -145 -146 -1975 0
-104 145 1975 0
104 -145 1975 0
103 1975 0
146 1975 0
103 -104 145 146 -1976 0
-103 104 145 -146 -1976 0
-103 -104 1976 0
-103 146 1976 0
103 104 1976 0
103 -146 1976 0
-145 1976 0
-101 102 2383 -2384 -1977 0
-101 -102 -2383 -2384 -1977 0
-102 2383 1977 0
102 -2383 1977 0
101 1977 0
2384 1977 0
101 -102 2383 2384 -1978 0
-101 102 2383 -2384 -1978 0
-101 -102 1978 0
-101 2384 1978 0
101 102 1978 0
101 -2384 1978 0
-2383 1978 0
-103 104 145 -146 -1979 0
-103 -104 -145 -146 -1979 0
-104 145 1979 0
104 -145 1979 0
103 1979 0
146 1979 0
103 -104 145 146 -1980 0
-103 104 145 -146 -1980 0
-103 -104 1980 0
-103 146 1980 0
103 104 1980 0
103 -146 1980 0
-145 1980 0
-133 134 257 -258 -1981 0
-133 -134 -257 -258 -1981 0
-134 257 1981 0
134 -257 1981 0
133 1981 0
258 1981 0
133 -134 257 258 -1982 0
-133 134 257 -258 -1982 0
-133 -134 1982 0
-133 258 1982 0
133 134 1982 0
133 -258 1982 0
-257 1982 0
-1991 1992 1993 -1994 -1983 0
-1991 -1992 -1993 -1994 -1983 0
-1992 1993 1983 0
1992 -1993 1983 0
1991 1983 0
1994 1983 0
1991 -1992 1993 1994 -1984 0
-1991 1992 1993 -1994 -1984 0
-1991 -1992 1984 0
-1991 1994 1984 0
1991 1992 1984 0
1991 -1994 1984 0
-1993 1984 0
-1197 1198 1983 -1984 -1985 0
-1197 -1198 -1983 -1984 -1985 0
-1198 1983 1985 0
1198 -1983 1985 0
1197 1985 0
1984 1985 0
1197 -1198 1983 1984 -1986 0
-1197 1198 1983 -1984 -1986 0
-1197 -1198 1986 0
-1197 1984 1986 0
1197 1198 1986 0
1197 -1984 1986 0
-1983 1986 0
-133 134 141 -142 -1987 0
-133 -134 -141 -142 -1987 0
-134 141 1987 0
134 -141 1987 0
133 1987 0
142 1987 0
133 -134 141 142 -1988 0
-133 134 141 -142 -1988 0
-133 -134 1988 0
-133 142 1988 0
133 134 1988 0
133 -142 1988 0
-141 1988 0
-257 258 1983 -1984 -1989 0
-257 -258 -1983 -1984 -1989 0
-258 1983 1989 0
258 -1983 1989 0
257 1989 0
1984 1989 0
257 -258 1983 1984 -1990 0
-257 258 1983 -1984 -1990 0
-257 -258 1990 0
-257 1984 1990 0
257 258 1990 0
257 -1984 1990 0
-1983 1990 0
-33 34 179 -180 -1991 0
-33 -34 -179 -180 -1991 0
-34 179 1991 0
34 -179 1991 0
33 1991 0
180 1991 0
33 -34 179 180 -1992 0
-33 34 179 -180 -1992 0
-33 -34 1992 0
-33 180 1992 0
33 34 1992 0
33 -180 1992 0
-179 1992 0
-187 188 189 -190 -1993 0
-187 -188 -189 -190 -1993 0
-188 189 1993 0
188 -189 1993 0
187 1993 0
190 1993 0
187 -188 189 190 -1994 0
-187 188 189 -190 -1994 0
-187 -188 1994 0
-187 190 1994 0
187 188 1994 0
187 -190 1994 0
-189 1994 0
-129 130 1197 -1198 -1995 0
-129 -130 -1197 -1198 -1995 0
-130 1197 1995 0
130 -1197 1995 0
129 1995 0
1198 1995 0
129 -130 1197 1198 -1996 0
-129 130 1197 -1198 -1996 0
-129 -130 1996 0
-129 1198 1996 0
129 130 1996 0
129 -1198 1996 0
-1197 1996 0
-129 130 141 -142 -1997 0
-129 -130 -141 -142 -1997 0
-130 141 1997 0
130 -141 1997 0
129 1997 0
142 1997 0
129 -130 141 142 -1998 0
-129 130 141 -142 -1998 0
-129 -130 1998 0
-129 142 1998 0
129 130 1998 0
129 -142 1998 0
-141 1998 0
-133 134 189 -190 -1999 0
-133 -134 -189 -190 -1999 0
-134 189 1999 0
134 -189 1999 0
133 1999 0
190 1999 0
133 -134 189 190 -2000 0
-133 134 189 -190 -2000 0
-133 -134 2000 0
-133 190 2000 0
133 134 2000 0
133 -190 2000 0
-189 2000 0
-257 258 1983 -1984 -2001 0
-257 -258 -1983 -1984 -2001 0
-258 1983 2001 0
258 -1983 2001 0
257 2001 0
1984 2001 0
257 -258 1983 1984 -2002 0
-257 258 1983 -1984 -2002 0
-257 -258 2002 0
-257 1984 2002 0
257 258 2002 0
257 -1984 2002 0
-1983 2002 0
-1999 2000 2001 -2002 -2003 0
-1999 -2000 -2001 -2002 -2003 0
-2000 2001 2003 0
2000 -2001 2003 0
1999 2003 0
2002 2003 0
1999 -2000 2001 2002 -2004 0
-1999 2000 2001 -2002 -2004 0
-1999 -2000 2004 0
-1999 2002 2004 0
1999 2000 2004 0
1999 -2002 2004 0
-2001 2004 0
-2657 2658 2659 -2660 -2005 0
-2657 -2658 -2659 -2660 -2005 0
-2658 2659 2005 0
2658 -2659 2005 0
2657 2005 0
2660 2005 0
2657 -2658 2659 2660 -2006 0
-2657 2658 2659 -2660 -2006 0
-2657 -2658 2006 0
-2657 2660 2006 0
2657 2658 2006 0
2657 -2660 2006 0
-2659 2006 0
-2663 2664 2665 -2666 -2007 0
-2663 -2664 -2665 -2666 -2007 0
-2664 2665 2007 0
2664 -2665 2007 0
2663 2007 0
2666 2007 0
2663 -2664 2665 2666 -2008 0
-2663 2664 2665 -2666 -2008 0
-2663 -2664 2008 0
-2663 2666 2008 0
2663 2664 2008 0
2663 -2666 2008 0
-2665 2008 0
-2005 2006 2007 -2008 -2009 0
-2005 -2006 -2007 -2008 -2009 0
-2006 2007 2009 0
2006 -2007 2009 0
2005 2009 0
2008 2009 0
2005 -2006 2007 2008 -2010 0
-2005 2006 2007 -2008 -2010 0
-2005 -2006 2010 0
-2005 2008 2010 0
2005 2006 2010 0
2005 -2008 2010 0
-2007 2010 0
-33 34 133 -134 -2011 0
-33 -34 -133 -134 -2011 0
-34 133 2011 0
34 -133 2011 0
33 2011 0
134 2011 0
33 -34 133 134 -2012 0
-33 34 133 -134 -2012 0
-33 -34 2012 0
-33 134 2012 0
33 34 2012 0
33 -134 2012 0
-133 2012 0
-257 258 1983 -1984 -2013 0
-257 -258 -1983 -1984 -2013 0
-258 1983 2013 0
258 -1983 2013 0
257 2013 0
1984 2013 0
257 -258 1983 1984 -2014 0
-257 258 1983 -1984 -2014 0
-257 -258 2014 0
-257 1984 2014 0
257 258 2014 0
257 -1984 2014 0
-1983 2014 0
-2011 2012 2013 -2014 -2015 0
-2011 -2012 -2013 -2014 -2015 0
-2012 2013 2015 0
2012 -2013 2015 0
2011 2015 0
2014 2015 0
2011 -2012 2013 2014 -2016 0
-2011 2012 2013 -2014 -2016 0
-2011 -2012 2016 0
-2011 2014 2016 0
2011 2012 2016 0
2011 -2014 2016 0
-2013 2016 0
-2667 2668 2669 -2670 -2017 0
-2667 -2668 -2669 -2670 -2017 0
-2668 2669 2017 0
2668 -2669 2017 0
2667 2017 0
2670 2017 0
2667 -2668 2669 2670 -2018 0
-2667 2668 2669 -2670 -2018 0
-2667 -2668 2018 0
-2667 2670 2018 0
2667 2668 2018 0
2667 -2670 2018 0
-2669 2018 0
-2671 2672 2673 -2674 -2019 0
-2671 -2672 -2673 -2674 -2019 0
-2672 2673 2019 0
2672 -2673 2019 0
2671 2019 0
2674 2019 0
2671 -2672 2673 2674 -2020 0
-2671 2672 2673 -2674 -2020 0
-2671 -2672 2020 0
-2671 2674 2020 0
2671 2672 2020 0
2671 -2674 2020 0
-2673 2020 0
-2017 2018 2019 -2020 -2021 0
-2017 -2018 -2019 -2020 -2021 0
-2018 2019 2021 0
2018 -2019 2021 0
2017 2021 0
2020 2021 0
2017 -2018 2019 2020 -2022 0
-2017 2018 2019 -2020 -2022 0
-2017 -2018 2022 0
-2017 2020 2022 0
2017 2018 2022 0
2017 -2020 2022 0
-2019 2022 0
-121 122 189 -190 -2023 0
-121 -122 -189 -190 -2023 0
-122 189 2023 0
122 -189 2023 0
121 2023 0
190 2023 0
121 -122 189 190 -2024 0
-121 122 189 -190 -2024 0
-121 -122 2024 0
-121 190 2024 0
121 122 2024 0
121 -190 2024 0
-189 2024 0
-1983 1984 2023 -2024 -2025 0
-1983 -1984 -2023 -2024 -2025 0
-1984 2023 2025 0
1984 -2023 2025 0
1983 2025 0
2024 2025 0
1983 -1984 2023 2024 -2026 0
-1983 1984 2023 -2024 -2026 0
-1983 -1984 2026 0
-1983 2024 2026 0
1983 1984 2026 0
1983 -2024 2026 0
-2023 2026 0
-2675 2676 2677 -2678 -2027 0
-2675 -2676 -2677 -2678 -2027 0
-2676 2677 2027 0
2676 -2677 2027 0
2675 2027 0
2678 2027 0
2675 -2676 2677 2678 -2028 0
-2675 2676 2677 -2678 -2028 0
-2675 -2676 2028 0
-2675 2678 2028 0
2675 2676 2028 0
2675 -2678 2028 0
-2677 2028 0
-2679 2680 2681 -2682 -2029 0
-2679 -2680 -2681 -2682 -2029 0
-2680 2681 2029 0
2680 -2681 2029 0
2679 2029 0
2682 2029 0
2679 -2680 2681 2682 -2030 0
-2679 2680 2681 -2682 -2030 0
-2679 -2680 2030 0
-2679 2682 2030 0
2679 2680 2030 0
2679 -2682 2030 0
-2681 2030 0
-2027 2028 2029 -2030 -2031 0
-2027 -2028 -2029 -2030 -2031 0
-2028 2029 2031 0
2028 -2029 2031 0
2027 2031 0
2030 2031 0
2027 -2028 2029 2030 -2032 0
-2027 2028 2029 -2030 -2032 0
-2027 -2028 2032 0
-2027 2030 2032 0
2027 2028 2032 0
2027 -2030 2032 0
-2029 2032 0
-33 34 121 -122 -2033 0
-33 -34 -121 -122 -2033 0
-34 121 2033 0
34 -121 2033 0
33 2033 0
122 2033 0
33 -34 121 122 -2034 0
-33 34 121 -122 -2034 0
-33 -34 2034 0
-33 122 2034 0
33 34 2034 0
33 -122 2034 0
-121 2034 0
-1983 1984 2033 -2034 -2035 0
-1983 -1984 -2033 -2034 -2035 0
-1984 2033 2035 0
1984 -2033 2035 0
1983 2035 0
2034 2035 0
1983 -1984 2033 2034 -2036 0
-1983 1984 2033 -2034 -2036 0
-1983 -1984 2036 0
-1983 2034 2036 0
1983 1984 2036 0
1983 -2034 2036 0
-2033 2036 0
-1983 1984 2683 -2684 -2037 0
-1983 -1984 -2683 -2684 -2037 0
-1984 2683 2037 0
1984 -2683 2037 0
1983 2037 0
2684 2037 0
1983 -1984 2683 2684 -2038 0
-1983 1984 2683 -2684 -2038 0
-1983 -1984 2038 0
-1983 2684 2038 0
1983 1984 2038 0
1983 -2684 2038 0
-2683 2038 0
-1983 1984 2685 -2686 -2039 0
-1983 -1984 -2685 -2686 -2039 0
-1984 2685 2039 0
1984 -2685 2039 0
1983 2039 0
2686 2039 0
1983 -1984 2685 2686 -2040 0
-1983 1984 2685 -2686 -2040 0
-1983 -1984 2040 0
-1983 2686 2040 0
1983 1984 2040 0
1983 -2686 2040 0
-2685 2040 0
-2037 2038 2039 -2040 -2041 0
-2037 -2038 -2039 -2040 -2041 0
-2038 2039 2041 0
2038 -2039 2041 0
2037 2041 0
2040 2041 0
2037 -2038 2039 2040 -2042 0
-2037 2038 2039 -2040 -2042 0
-2037 -2038 2042 0
-2037 2040 2042 0
2037 2038 2042 0
2037 -2040 2042 0
-2039 2042 0
-187 188 1111 -1112 -2043 0
-187 -188 -1111 -1112 -2043 0
-188 1111 2043 0
188 -1111 2043 0
187 2043 0
1112 2043 0
187 -188 1111 1112 -2044 0
-187 188 1111 -1112 -2044 0
-187 -188 2044 0
-187 1112 2044 0
187 188 2044 0
187 -1112 2044 0
-1111 2044 0
-2385 2386 2387 -2388 -2045 0
-2385 -2386 -2387 -2388 -2045 0
-2386 2387 2045 0
2386 -2387 2045 0
2385 2045 0
2388 2045 0
2385 -2386 2387 2388 -2046 0
-2385 2386 2387 -2388 -2046 0
-2385 -2386 2046 0
-2385 2388 2046 0
2385 2386 2046 0
2385 -2388 2046 0
-2387 2046 0
-189 190 1111 -1112 -2047 0
-189 -190 -1111 -1112 -2047 0
-190 1111 2047 0
190 -1111 2047 0
189 2047 0
1112 2047 0
189 -190 1111 1112 -2048 0
-189 190 1111 -1112 -2048 0
-189 -190 2048 0
-189 1112 2048 0
189 190 2048 0
189 -1112 2048 0
-1111 2048 0
-2045 2046 2047 -2048 -2049 0
-2045 -2046 -2047 -2048 -2049 0
-2046 2047 2049 0
2046 -2047 2049 0
2045 2049 0
2048 2049 0
2045 -2046 2047 2048 -2050 0
-2045 2046 2047 -2048 -2050 0
-2045 -2046 2050 0
-2045 2048 2050 0
2045 2046 2050 0
2045 -2048 2050 0
-2047 2050 0
-125 126 127 -128 -2051 0
-125 -126 -127 -128 -2051 0
-126 127 2051 0
126 -127 2051 0
125 2051 0
128 2051 0
125 -126 127 128 -2052 0
-125 126 127 -128 -2052 0
-125 -126 2052 0
-125 128 2052 0
125 126 2052 0
125 -128 2052 0
-127 2052 0
-125 126 127 -128 -2053 0
-125 -126 -127 -128 -2053 0
-126 127 2053 0
126 -127 2053 0
125 2053 0
128 2053 0
125 -126 127 128 -2054 0
-125 126 127 -128 -2054 0
-125 -126 2054 0
-125 128 2054 0
125 126 2054 0
125 -128 2054 0
-127 2054 0
-147 148 159 -160 -2055 0
-147 -148 -159 -160 -2055 0
-148 159 2055 0
148 -159 2055 0
147 2055 0
160 2055 0
147 -148 159 160 -2056 0
-147 148 159 -160 -2056 0
-147 -148 2056 0
-147 160 2056 0
147 148 2056 0
147 -160 2056 0
-159 2056 0
-2227 2228 2229 -2230 -2057 0
-2227 -2228 -2229 -2230 -2057 0
-2228 2229 2057 0
2228 -2229 2057 0
2227 2057 0
2230 2057 0
2227 -2228 2229 2230 -2058 0
-2227 2228 2229 -2230 -2058 0
-2227 -2228 2058 0
-2227 2230 2058 0
2227 2228 2058 0
2227 -2230 2058 0
-2229 2058 0
-2235 2236 2237 -2238 -2059 0
-2235 -2236 -2237 -2238 -2059 0
-2236 2237 2059 0
2236 -2237 2059 0
2235 2059 0
2238 2059 0
2235 -2236 2237 2238 -2060 0
-2235 2236 2237 -2238 -2060 0
-2235 -2236 2060 0
-2235 2238 2060 0
2235 2236 2060 0
2235 -2238 2060 0
-2237 2060 0
-2473 2474 2479 -2480 -2061 0
-2473 -2474 -2479 -2480 -2061 0
-2474 2479 2061 0
2474 -2479 2061 0
2473 2061 0
2480 2061 0
2473 -2474 2479 2480 -2062 0
-2473 2474 2479 -2480 -2062 0
-2473 -2474 2062 0
-2473 2480 2062 0
2473 2474 2062 0
2473 -2480 2062 0
-2479 2062 0
-2453 2454 2467 -2468 -2063 0
-2453 -2454 -2467 -2468 -2063 0
-2454 2467 2063 0
2454 -2467 2063 0
2453 2063 0
2468 2063 0
2453 -2454 2467 2468 -2064 0
-2453 2454 2467 -2468 -2064 0
-2453 -2454 2064 0
-2453 2468 2064 0
2453 2454 2064 0
2453 -2468 2064 0
-2467 2064 0
-2061 2062 2063 -2064 -2065 0
-2061 -2062 -2063 -2064 -2065 0
-2062 2063 2065 0
2062 -2063 2065 0
2061 2065 0
2064 2065 0
2061 -2062 2063 2064 -2066 0
-2061 2062 2063 -2064 -2066 0
-2061 -2062 2066 0
-2061 2064 2066 0
2061 2062 2066 0
2061 -2064 2066 0
-2063 2066 0
-2511 2512 2515 -2516 -2067 0
-2511 -2512 -2515 -2516 -2067 0
-2512 2515 2067 0
2512 -2515 2067 0
2511 2067 0
2516 2067 0
2511 -2512 2515 2516 -2068 0
-2511 2512 2515 -2516 -2068 0
-2511 -2512 2068 0
-2511 2516 2068 0
2511 2512 2068 0
2511 -2516 2068 0
-2515 2068 0
-2493 2494 2505 -2506 -2069 0
-2493 -2494 -2505 -2506 -2069 0
-2494 2505 2069 0
2494 -2505 2069 0
2493 2069 0
2506 2069 0
2493 -2494 2505 2506 -2070 0
-2493 2494 2505 -2506 -2070 0
-2493 -2494 2070 0
-2493 2506 2070 0
2493 2494 2070 0
2493 -2506 2070 0
-2505 2070 0
-2067 2068 2069 -2070 -2071 0
-2067 -2068 -2069 -2070 -2071 0
-2068 2069 2071 0
2068 -2069 2071 0
2067 2071 0
2070 2071 0
2067 -2068 2069 2070 -2072 0
-2067 2068 2069 -2070 -2072 0
-2067 -2068 2072 0
-2067 2070 2072 0
2067 2068 2072 0
2067 -2070 2072 0
-2069 2072 0
-2545 2546 2549 -2550 -2073 0
-2545 -2546 -2549 -2550 -2073 0
-2546 2549 2073 0
2546 -2549 2073 0
2545 2073 0
2550 2073 0
2545 -2546 2549 2550 -2074 0
-2545 2546 2549 -2550 -2074 0
-2545 -2546 2074 0
-2545 2550 2074 0
2545 2546 2074 0
2545 -2550 2074 0
-2549 2074 0
-2527 2528 2539 -2540 -2075 0
-2527 -2528 -2539 -2540 -2075 0
-2528 2539 2075 0
2528 -2539 2075 0
2527 2075 0
2540 2075 0
2527 -2528 2539 2540 -2076 0
-2527 2528 2539 -2540 -2076 0
-2527 -2528 2076 0
-2527 2540 2076 0
2527 2528 2076 0
2527 -2540 2076 0
-2539 2076 0
-2073 2074 2075 -2076 -2077 0
-2073 -2074 -2075 -2076 -2077 0
-2074 2075 2077 0
2074 -2075 2077 0
2073 2077 0
2076 2077 0
2073 -2074 2075 2076 -2078 0
-2073 2074 2075 -2076 -2078 0
-2073 -2074 2078 0
-2073 2076 2078 0
2073 2074 2078 0
2073 -2076 2078 0
-2075 2078 0
-2575 2576 2579 -2580 -2079 0
-2575 -2576 -2579 -2580 -2079 0
-2576 2579 2079 0
2576 -2579 2079 0
2575 2079 0
2580 2079 0
2575 -2576 2579 2580 -2080 0
-2575 2576 2579 -2580 -2080 0
-2575 -2576 2080 0
-2575 2580 2080 0
2575 2576 2080 0
2575 -2580 2080 0
-2579 2080 0
-2561 2562 2571 -2572 -2081 0
-2561 -2562 -2571 -2572 -2081 0
-2562 2571 2081 0
2562 -2571 2081 0
2561 2081 0
2572 2081 0
2561 -2562 2571 2572 -2082 0
-2561 2562 2571 -2572 -2082 0
-2561 -2562 2082 0
-2561 2572 2082 0
2561 2562 2082 0
2561 -2572 2082 0
-2571 2082 0
-2079 2080 2081 -2082 -2083 0
-2079 -2080 -2081 -2082 -2083 0
-2080 2081 2083 0
2080 -2081 2083 0
2079 2083 0
2082 2083 0
2079 -2080 2081 2082 -2084 0
-2079 2080 2081 -2082 -2084 0
-2079 -2080 2084 0
-2079 2082 2084 0
2079 2080 2084 0
2079 -2082 2084 0
-2081 2084 0
-2603 2604 2607 -2608 -2085 0
-2603 -2604 -2607 -2608 -2085 0
-2604 2607 2085 0
2604 -2607 2085 0
2603 2085 0
2608 2085 0
2603 -2604 2607 2608 -2086 0
-2603 2604 2607 -2608 -2086 0
-2603 -2604 2086 0
-2603 2608 2086 0
2603 2604 2086 0
2603 -2608 2086 0
-2607 2086 0
-2589 2590 2599 -2600 -2087 0
-2589 -2590 -2599 -2600 -2087 0
-2590 2599 2087 0
2590 -2599 2087 0
2589 2087 0
2600 2087 0
2589 -2590 2599 2600 -2088 0
-2589 2590 2599 -2600 -2088 0
-2589 -2590 2088 0
-2589 2600 2088 0
2589 2590 2088 0
2589 -2600 2088 0
-2599 2088 0
-2085 2086 2087 -2088 -2089 0
-2085 -2086 -2087 -2088 -2089 0
-2086 2087 2089 0
2086 -2087 2089 0
2085 2089 0
2088 2089 0
2085 -2086 2087 2088 -2090 0
-2085 2086 2087 -2088 -2090 0
-2085 -2086 2090 0
-2085 2088 2090 0
2085 2086 2090 0
2085 -2088 2090 0
-2087 2090 0
-2627 2628 2629 -2630 -2091 0
-2627 -2628 -2629 -2630 -2091 0
-2628 2629 2091 0
2628 -2629 2091 0
2627 2091 0
2630 2091 0
2627 -2628 2629 2630 -2092 0
-2627 2628 2629 -2630 -2092 0
-2627 -2628 2092 0
-2627 2630 2092 0
2627 2628 2092 0
2627 -2630 2092 0
-2629 2092 0
-2615 2616 2623 -2624 -2093 0
-2615 -2616 -2623 -2624 -2093 0
-2616 2623 2093 0
2616 -2623 2093 0
2615 2093 0
2624 2093 0
2615 -2616 2623 2624 -2094 0
-2615 2616 2623 -2624 -2094 0
-2615 -2616 2094 0
-2615 2624 2094 0
2615 2616 2094 0
2615 -2624 2094 0
-2623 2094 0
-2091 2092 2093 -2094 -2095 0
-2091 -2092 -2093 -2094 -2095 0
-2092 2093 2095 0
2092 -2093 2095 0
2091 2095 0
2094 2095 0
2091 -2092 2093 2094 -2096 0
-2091 2092 2093 -2094 -2096 0
-2091 -2092 2096 0
-2091 2094 2096 0
2091 2092 2096 0
2091 -2094 2096 0
-2093 2096 0
-2643 2644 2645 -2646 -2097 0
-2643 -2644 -2645 -2646 -2097 0
-2644 2645 2097 0
2644 -2645 2097 0
2643 2097 0
2646 2097 0
2643 -2644 2645 2646 -2098 0
-2643 2644 2645 -2646 -2098 0
-2643 -2644 2098 0
-2643 2646 2098 0
2643 2644 2098 0
2643 -2646 2098 0
-2645 2098 0
-2635 2636 2641 -2642 -2099 0
-2635 -2636 -2641 -2642 -2099 0
-2636 2641 2099 0
2636 -2641 2099 0
2635 2099 0
2642 2099 0
2635 -2636 2641 2642 -2100 0
-2635 2636 2641 -2642 -2100 0
-2635 -2636 2100 0
-2635 2642 2100 0
2635 2636 2100 0
2635 -2642 2100 0
-2641 2100 0
-2097 2098 2099 -2100 -2101 0
-2097 -2098 -2099 -2100 -2101 0
-2098 2099 2101 0
2098 -2099 2101 0
2097 2101 0
2100 2101 0
2097 -2098 2099 2100 -2102 0
-2097 2098 2099 -2100 -2102 0
-2097 -2098 2102 0
-2097 2100 2102 0
2097 2098 2102 0
2097 -2100 2102 0
-2099 2102 0
-2647 2648 2649 -2650 -2103 0
-2647 -2648 -2649 -2650 -2103 0
-2648 2649 2103 0
2648 -2649 2103 0
2647 2103 0
2650 2103 0
2647 -2648 2649 2650 -2104 0
-2647 2648 2649 -2650 -2104 0
-2647 -2648 2104 0
-2647 2650 2104 0
2647 2648 2104 0
2647 -2650 2104 0
-2649 2104 0
-2651 2652 2653 -2654 -2105 0
-2651 -2652 -2653 -2654 -2105 0
-2652 2653 2105 0
2652 -2653 2105 0
2651 2105 0
2654 2105 0
2651 -2652 2653 2654 -2106 0
-2651 2652 2653 -2654 -2106 0
-2651 -2652 2106 0
-2651 2654 2106 0
2651 2652 2106 0
2651 -2654 2106 0
-2653 2106 0
-2103 2104 2105 -2106 -2107 0
-2103 -2104 -2105 -2106 -2107 0
-2104 2105 2107 0
2104 -2105 2107 0
2103 2107 0
2106 2107 0
2103 -2104 2105 2106 -2108 0
-2103 2104 2105 -2106 -2108 0
-2103 -2104 2108 0
-2103 2106 2108 0
2103 2104 2108 0
2103 -2106 2108 0
-2105 2108 0
-139 140 141 -142 -2109 0
-139 -140 -141 -142 -2109 0
-140 141 2109 0
140 -141 2109 0
139 2109 0
142 2109 0
139 -140 141 142 -2110 0
-139 140 141 -142 -2110 0
-139 -140 2110 0
-139 142 2110 0
139 140 2110 0
139 -142 2110 0
-141 2110 0
-139 140 141 -142 -2111 0
-139 -140 -141 -142 -2111 0
-140 141 2111 0
140 -141 2111 0
139 2111 0
142 2111 0
139 -140 141 142 -2112 0
-139 140 141 -142 -2112 0
-139 -140 2112 0
-139 142 2112 0
139 140 2112 0
139 -142 2112 0
-141 2112 0
-2399 2400 2401 -2402 -2113 0
-2399 -2400 -2401 -2402 -2113 0
-2400 2401 2113 0
2400 -2401 2113 0
2399 2113 0
2402 2113 0
2399 -2400 2401 2402 -2114 0
-2399 2400 2401 -2402 -2114 0
-2399 -2400 2114 0
-2399 2402 2114 0
2399 2400 2114 0
2399 -2402 2114 0
-2401 2114 0
-2403 2404 2405 -2406 -2115 0
-2403 -2404 -2405 -2406 -2115 0
-2404 2405 2115 0
2404 -2405 2115 0
2403 2115 0
2406 2115 0
2403 -2404 2405 2406 -2116 0
-2403 2404 2405 -2406 -2116 0
-2403 -2404 2116 0
-2403 2406 2116 0
2403 2404 2116 0
2403 -2406 2116 0
-2405 2116 0
-2407 2408 2409 -2410 -2117 0
-2407 -2408 -2409 -2410 -2117 0
-2408 2409 2117 0
2408 -2409 2117 0
2407 2117 0
2410 2117 0
2407 -2408 2409 2410 -2118 0
-2407 2408 2409 -2410 -2118 0
-2407 -2408 2118 0
-2407 2410 2118 0
2407 2408 2118 0
2407 -2410 2118 0
-2409 2118 0
-13 14 2411 -2412 -2119 0
-13 -14 -2411 -2412 -2119 0
-14 2411 2119 0
14 -2411 2119 0
13 2119 0
2412 2119 0
13 -14 2411 2412 -2120 0
-13 14 2411 -2412 -2120 0
-13 -14 2120 0
-13 2412 2120 0
13 14 2120 0
13 -2412 2120 0
-2411 2120 0
-87 88 151 -152 -2121 0
-87 -88 -151 -152 -2121 0
-88 151 2121 0
88 -151 2121 0
87 2121 0
152 2121 0
87 -88 151 152 -2122 0
-87 88 151 -152 -2122 0
-87 -88 2122 0
-87 152 2122 0
87 88 2122 0
87 -152 2122 0
-151 2122 0
-87 88 151 -152 -2123 0
-87 -88 -151 -152 -2123 0
-88 151 2123 0
88 -151 2123 0
87 2123 0
152 2123 0
87 -88 151 152 -2124 0
-87 88 151 -152 -2124 0
-87 -88 2124 0
-87 152 2124 0
87 88 2124 0
87 -152 2124 0
-151 2124 0
-787 788 3147 -3148 -2125 0
-787 -788 -3147 -3148 -2125 0
-788 3147 2125 0
788 -3147 2125 0
787 2125 0
3148 2125 0
787 -788 3147 3148 -2126 0
-787 788 3147 -3148 -2126 0
-787 -788 2126 0
-787 3148 2126 0
787 788 2126 0
787 -3148 2126 0
-3147 2126 0
-799 800 3149 -3150 -2127 0
-799 -800 -3149 -3150 -2127 0
-800 3149 2127 0
800 -3149 2127 0
799 2127 0
3150 2127 0
799 -800 3149 3150 -2128 0
-799 800 3149 -3150 -2128 0
-799 -800 2128 0
-799 3150 2128 0
799 800 2128 0
799 -3150 2128 0
-3149 2128 0
-2125 2126 2127 -2128 -2129 0
-2125 -2126 -2127 -2128 -2129 0
-2126 2127 2129 0
2126 -2127 2129 0
2125 2129 0
2128 2129 0
2125 -2126 2127 2128 -2130 0
-2125 2126 2127 -2128 -2130 0
-2125 -2126 2130 0
-2125 2128 2130 0
2125 2126 2130 0
2125 -2128 2130 0
-2127 2130 0
-231 232 3151 -3152 -2131 0
-231 -232 -3151 -3152 -2131 0
-232 3151 2131 0
232 -3151 2131 0
231 2131 0
3152 2131 0
231 -232 3151 3152 -2132 0
-231 232 3151 -3152 -2132 0
-231 -232 2132 0
-231 3152 2132 0
231 232 2132 0
231 -3152 2132 0
-3151 2132 0
-259 260 787 -788 -2133 0
-259 -260 -787 -788 -2133 0
-260 787 2133 0
260 -787 2133 0
259 2133 0
788 2133 0
259 -260 787 788 -2134 0
-259 260 787 -788 -2134 0
-259 -260 2134 0
-259 788 2134 0
259 260 2134 0
259 -788 2134 0
-787 2134 0
-2131 2132 2133 -2134 -2135 0
-2131 -2132 -2133 -2134 -2135 0
-2132 2133 2135 0
2132 -2133 2135 0
2131 2135 0
2134 2135 0
2131 -2132 2133 2134 -2136 0
-2131 2132 2133 -2134 -2136 0
-2131 -2132 2136 0
-2131 2134 2136 0
2131 2132 2136 0
2131 -2134 2136 0
-2133 2136 0
-2129 2130 2135 -2136 -2137 0
-2129 -2130 -2135 -2136 -2137 0
-2130 2135 2137 0
2130 -2135 2137 0
2129 2137 0
2136 2137 0
2129 -2130 2135 2136 -2138 0
-2129 2130 2135 -2136 -2138 0
-2129 -2130 2138 0
-2129 2136 2138 0
2129 2130 2138 0
2129 -2136 2138 0
-2135 2138 0
-199 200 259 -260 -2139 0
-199 -200 -259 -260 -2139 0
-200 259 2139 0
200 -259 2139 0
199 2139 0
260 2139 0
199 -200 259 260 -2140 0
-199 200 259 -260 -2140 0
-199 -200 2140 0
-199 260 2140 0
199 200 2140 0
199 -260 2140 0
-259 2140 0
-787 788 805 -806 -2141 0
-787 -788 -805 -806 -2141 0
-788 805 2141 0
788 -805 2141 0
787 2141 0
806 2141 0
787 -788 805 806 -2142 0
-787 788 805 -806 -2142 0
-787 -788 2142 0
-787 806 2142 0
787 788 2142 0
787 -806 2142 0
-805 2142 0
-2139 2140 2141 -2142 -2143 0
-2139 -2140 -2141 -2142 -2143 0
-2140 2141 2143 0
2140 -2141 2143 0
2139 2143 0
2142 2143 0
2139 -2140 2141 2142 -2144 0
-2139 2140 2141 -2142 -2144 0
-2139 -2140 2144 0
-2139 2142 2144 0
2139 2140 2144 0
2139 -2142 2144 0
-2141 2144 0
-197 198 259 -260 -2145 0
-197 -198 -259 -260 -2145 0
-198 259 2145 0
198 -259 2145 0
197 2145 0
260 2145 0
197 -198 259 260 -2146 0
-197 198 259 -260 -2146 0
-197 -198 2146 0
-197 260 2146 0
197 198 2146 0
197 -260 2146 0
-259 2146 0
-787 788 2397 -2398 -2147 0
-787 -788 -2397 -2398 -2147 0
-788 2397 2147 0
788 -2397 2147 0
787 2147 0
2398 2147 0
787 -788 2397 2398 -2148 0
-787 788 2397 -2398 -2148 0
-787 -788 2148 0
-787 2398 2148 0
787 788 2148 0
787 -2398 2148 0
-2397 2148 0
-2145 2146 2147 -2148 -2149 0
-2145 -2146 -2147 -2148 -2149 0
-2146 2147 2149 0
2146 -2147 2149 0
2145 2149 0
2148 2149 0
2145 -2146 2147 2148 -2150 0
-2145 2146 2147 -2148 -2150 0
-2145 -2146 2150 0
-2145 2148 2150 0
2145 2146 2150 0
2145 -2148 2150 0
-2147 2150 0
-2143 2144 2149 -2150 -2151 0
-2143 -2144 -2149 -2150 -2151 0
-2144 2149 2151 0
2144 -2149 2151 0
2143 2151 0
2150 2151 0
2143 -2144 2149 2150 -2152 0
-2143 2144 2149 -2150 -2152 0
-2143 -2144 2152 0
-2143 2150 2152 0
2143 2144 2152 0
2143 -2150 2152 0
-2149 2152 0
-201 202 203 -204 -2153 0
-201 -202 -203 -204 -2153 0
-202 203 2153 0
202 -203 2153 0
201 2153 0
204 2153 0
201 -202 203 204 -2154 0
-201 202 203 -204 -2154 0
-201 -202 2154 0
-201 204 2154 0
201 202 2154 0
201 -204 2154 0
-203 2154 0
-199 200 257 -258 -2155 0
-199 -200 -257 -258 -2155 0
-200 257 2155 0
200 -257 2155 0
199 2155 0
258 2155 0
199 -200 257 258 -2156 0
-199 200 257 -258 -2156 0
-199 -200 2156 0
-199 258 2156 0
199 200 2156 0
199 -258 2156 0
-257 2156 0
-259 260 787 -788 -2157 0
-259 -260 -787 -788 -2157 0
-260 787 2157 0
260 -787 2157 0
259 2157 0
788 2157 0
259 -260 787 788 -2158 0
-259 260 787 -788 -2158 0
-259 -260 2158 0
-259 788 2158 0
259 260 2158 0
259 -788 2158 0
-787 2158 0
-2155 2156 2157 -2158 -2159 0
-2155 -2156 -2157 -2158 -2159 0
-2156 2157 2159 0
2156 -2157 2159 0
2155 2159 0
2158 2159 0
2155 -2156 2157 2158 -2160 0
-2155 2156 2157 -2158 -2160 0
-2155 -2156 2160 0
-2155 2158 2160 0
2155 2156 2160 0
2155 -2158 2160 0
-2157 2160 0
-201 202 515 -516 -2161 0
-201 -202 -515 -516 -2161 0
-202 515 2161 0
202 -515 2161 0
201 2161 0
516 2161 0
201 -202 515 516 -2162 0
-201 202 515 -516 -2162 0
-201 -202 2162 0
-201 516 2162 0
201 202 2162 0
201 -516 2162 0
-515 2162 0
-1149 1150 2161 -2162 -2163 0
-1149 -1150 -2161 -2162 -2163 0
-1150 2161 2163 0
1150 -2161 2163 0
1149 2163 0
2162 2163 0
1149 -1150 2161 2162 -2164 0
-1149 1150 2161 -2162 -2164 0
-1149 -1150 2164 0
-1149 2162 2164 0
1149 1150 2164 0
1149 -2162 2164 0
-2161 2164 0
-2159 2160 2163 -2164 -2165 0
-2159 -2160 -2163 -2164 -2165 0
-2160 2163 2165 0
2160 -2163 2165 0
2159 2165 0
2164 2165 0
2159 -2160 2163 2164 -2166 0
-2159 2160 2163 -2164 -2166 0
-2159 -2160 2166 0
-2159 2164 2166 0
2159 2160 2166 0
2159 -2164 2166 0
-2163 2166 0
-167 168 169 -170 -2167 0
-167 -168 -169 -170 -2167 0
-168 169 2167 0
168 -169 2167 0
167 2167 0
170 2167 0
167 -168 169 170 -2168 0
-167 168 169 -170 -2168 0
-167 -168 2168 0
-167 170 2168 0
167 168 2168 0
167 -170 2168 0
-169 2168 0
-171 172 2167 -2168 -2169 0
-171 -172 -2167 -2168 -2169 0
-172 2167 2169 0
172 -2167 2169 0
171 2169 0
2168 2169 0
171 -172 2167 2168 -2170 0
-171 172 2167 -2168 -2170 0
-171 -172 2170 0
-171 2168 2170 0
171 172 2170 0
171 -2168 2170 0
-2167 2170 0
-167 168 169 -170 -2171 0
-167 -168 -169 -170 -2171 0
-168 169 2171 0
168 -169 2171 0
167 2171 0
170 2171 0
167 -168 169 170 -2172 0
-167 168 169 -170 -2172 0
-167 -168 2172 0
-167 170 2172 0
167 168 2172 0
167 -170 2172 0
-169 2172 0
-171 172 2171 -2172 -2173 0
-171 -172 -2171 -2172 -2173 0
-172 2171 2173 0
172 -2171 2173 0
171 2173 0
2172 2173 0
171 -172 2171 2172 -2174 0
-171 172 2171 -2172 -2174 0
-171 -172 2174 0
-171 2172 2174 0
171 172 2174 0
171 -2172 2174 0
-2171 2174 0
-3153 3154 3155 -3156 -2175 0
-3153 -3154 -3155 -3156 -2175 0
-3154 3155 2175 0
3154 -3155 2175 0
3153 2175 0
3156 2175 0
3153 -3154 3155 3156 -2176 0
-3153 3154 3155 -3156 -2176 0
-3153 -3154 2176 0
-3153 3156 2176 0
3153 3154 2176 0
3153 -3156 2176 0
-3155 2176 0
-1811 1812 3157 -3158 -2177 0
-1811 -1812 -3157 -3158 -2177 0
-1812 3157 2177 0
1812 -3157 2177 0
1811 2177 0
3158 2177 0
1811 -1812 3157 3158 -2178 0
-1811 1812 3157 -3158 -2178 0
-1811 -1812 2178 0
-1811 3158 2178 0
1811 1812 2178 0
1811 -3158 2178 0
-3157 2178 0
-2175 2176 2177 -2178 -2179 0
-2175 -2176 -2177 -2178 -2179 0
-2176 2177 2179 0
2176 -2177 2179 0
2175 2179 0
2178 2179 0
2175 -2176 2177 2178 -2180 0
-2175 2176 2177 -2178 -2180 0
-2175 -2176 2180 0
-2175 2178 2180 0
2175 2176 2180 0
2175 -2178 2180 0
-2177 2180 0
-3159 3160 3161 -3162 -2181 0
-3159 -3160 -3161 -3162 -2181 0
-3160 3161 2181 0
3160 -3161 2181 0
3159 2181 0
3162 2181 0
3159 -3160 3161 3162 -2182 0
-3159 3160 3161 -3162 -2182 0
-3159 -3160 2182 0
-3159 3162 2182 0
3159 3160 2182 0
3159 -3162 2182 0
-3161 2182 0
-1811 1812 3163 -3164 -2183 0
-1811 -1812 -3163 -3164 -2183 0
-1812 3163 2183 0
1812 -3163 2183 0
1811 2183 0
3164 2183 0
1811 -1812 3163 3164 -2184 0
-1811 1812 3163 -3164 -2184 0
-1811 -1812 2184 0
-1811 3164 2184 0
1811 1812 2184 0
1811 -3164 2184 0
-3163 2184 0
-2181 2182 2183 -2184 -2185 0
-2181 -2182 -2183 -2184 -2185 0
-2182 2183 2185 0
2182 -2183 2185 0
2181 2185 0
2184 2185 0
2181 -2182 2183 2184 -2186 0
-2181 2182 2183 -2184 -2186 0
-2181 -2182 2186 0
-2181 2184 2186 0
2181 2182 2186 0
2181 -2184 2186 0
-2183 2186 0
-3165 3166 3167 -3168 -2187 0
-3165 -3166 -3167 -3168 -2187 0
-3166 3167 2187 0
3166 -3167 2187 0
3165 2187 0
3168 2187 0
3165 -3166 3167 3168 -2188 0
-3165 3166 3167 -3168 -2188 0
-3165 -3166 2188 0
-3165 3168 2188 0
3165 3166 2188 0
3165 -3168 2188 0
-3167 2188 0
-1811 1812 3169 -3170 -2189 0
-1811 -1812 -3169 -3170 -2189 0
-1812 3169 2189 0
1812 -3169 2189 0
1811 2189 0
3170 2189 0
1811 -1812 3169 3170 -2190 0
-1811 1812 3169 -3170 -2190 0
-1811 -1812 2190 0
-1811 3170 2190 0
1811 1812 2190 0
1811 -3170 2190 0
-3169 2190 0
-2187 2188 2189 -2190 -2191 0
-2187 -2188 -2189 -2190 -2191 0
-2188 2189 2191 0
2188 -2189 2191 0
2187 2191 0
2190 2191 0
2187 -2188 2189 2190 -2192 0
-2187 2188 2189 -2190 -2192 0
-2187 -2188 2192 0
-2187 2190 2192 0
2187 2188 2192 0
2187 -2190 2192 0
-2189 2192 0
-3171 3172 3173 -3174 -2193 0
-3171 -3172 -3173 -3174 -2193 0
-3172 3173 2193 0
3172 -3173 2193 0
3171 2193 0
3174 2193 0
3171 -3172 3173 3174 -2194 0
-3171 3172 3173 -3174 -2194 0
-3171 -3172 2194 0
-3171 3174 2194 0
3171 3172 2194 0
3171 -3174 2194 0
-3173 2194 0
-1811 1812 3175 -3176 -2195 0
-1811 -1812 -3175 -3176 -2195 0
-1812 3175 2195 0
1812 -3175 2195 0
1811 2195 0
3176 2195 0
1811 -1812 3175 3176 -2196 0
-1811 1812 3175 -3176 -2196 0
-1811 -1812 2196 0
-1811 3176 2196 0
1811 1812 2196 0
1811 -3176 2196 0
-3175 2196 0
-2193 2194 2195 -2196 -2197 0
-2193 -2194 -2195 -2196 -2197 0
-2194 2195 2197 0
2194 -2195 2197 0
2193 2197 0
2196 2197 0
2193 -2194 2195 2196 -2198 0
-2193 2194 2195 -2196 -2198 0
-2193 -2194 2198 0
-2193 2196 2198 0
2193 2194 2198 0
2193 -2196 2198 0
-2195 2198 0
-141 142 3177 -3178 -2199 0
-141 -142 -3177 -3178 -2199 0
-142 3177 2199 0
142 -3177 2199 0
141 2199 0
3178 2199 0
141 -142 3177 3178 -2200 0
-141 142 3177 -3178 -2200 0
-141 -142 2200 0
-141 3178 2200 0
141 142 2200 0
141 -3178 2200 0
-3177 2200 0
-185 186 3179 -3180 -2201 0
-185 -186 -3179 -3180 -2201 0
-186 3179 2201 0
186 -3179 2201 0
185 2201 0
3180 2201 0
185 -186 3179 3180 -2202 0
-185 186 3179 -3180 -2202 0
-185 -186 2202 0
-185 3180 2202 0
185 186 2202 0
185 -3180 2202 0
-3179 2202 0
-2199 2200 2201 -2202 -2203 0
-2199 -2200 -2201 -2202 -2203 0
-2200 2201 2203 0
2200 -2201 2203 0
2199 2203 0
2202 2203 0
2199 -2200 2201 2202 -2204 0
-2199 2200 2201 -2202 -2204 0
-2199 -2200 2204 0
-2199 2202 2204 0
2199 2200 2204 0
2199 -2202 2204 0
-2201 2204 0
-141 142 3181 -3182 -2205 0
-141 -142 -3181 -3182 -2205 0
-142 3181 2205 0
142 -3181 2205 0
141 2205 0
3182 2205 0
141 -142 3181 3182 -2206 0
-141 142 3181 -3182 -2206 0
-141 -142 2206 0
-141 3182 2206 0
141 142 2206 0
141 -3182 2206 0
-3181 2206 0
-185 186 3183 -3184 -2207 0
-185 -186 -3183 -3184 -2207 0
-186 3183 2207 0
186 -3183 2207 0
185 2207 0
3184 2207 0
185 -186 3183 3184 -2208 0
-185 186 3183 -3184 -2208 0
-185 -186 2208 0
-185 3184 2208 0
185 186 2208 0
185 -3184 2208 0
-3183 2208 0
-2205 2206 2207 -2208 -2209 0
-2205 -2206 -2207 -2208 -2209 0
-2206 2207 2209 0
2206 -2207 2209 0
2205 2209 0
2208 2209 0
2205 -2206 2207 2208 -2210 0
-2205 2206 2207 -2208 -2210 0
-2205 -2206 2210 0
-2205 2208 2210 0
2205 2206 2210 0
2205 -2208 2210 0
-2207 2210 0
-141 142 3185 -3186 -2211 0
-141 -142 -3185 -3186 -2211 0
-142 3185 2211 0
142 -3185 2211 0
141 2211 0
3186 2211 0
141 -142 3185 3186 -2212 0
-141 142 3185 -3186 -2212 0
-141 -142 2212 0
-141 3186 2212 0
141 142 2212 0
141 -3186 2212 0
-3185 2212 0
-185 186 3187 -3188 -2213 0
-185 -186 -3187 -3188 -2213 0
-186 3187 2213 0
186 -3187 2213 0
185 2213 0
3188 2213 0
185 -186 3187 3188 -2214 0
-185 186 3187 -3188 -2214 0
-185 -186 2214 0
-185 3188 2214 0
185 186 2214 0
185 -3188 2214 0
-3187 2214 0
-2211 2212 2213 -2214 -2215 0
-2211 -2212 -2213 -2214 -2215 0
-2212 2213 2215 0
2212 -2213 2215 0
2211 2215 0
2214 2215 0
2211 -2212 2213 2214 -2216 0
-2211 2212 2213 -2214 -2216 0
-2211 -2212 2216 0
-2211 2214 2216 0
2211 2212 2216 0
2211 -2214 2216 0
-2213 2216 0
-141 142 3189 -3190 -2217 0
-141 -142 -3189 -3190 -2217 0
-142 3189 2217 0
142 -3189 2217 0
141 2217 0
3190 2217 0
141 -142 3189 3190 -2218 0
-141 142 3189 -3190 -2218 0
-141 -142 2218 0
-141 3190 2218 0
141 142 2218 0
141 -3190 2218 0
-3189 2218 0
-185 186 3191 -3192 -2219 0
-185 -186 -3191 -3192 -2219 0
-186 3191 2219 0
186 -3191 2219 0
185 2219 0
3192 2219 0
185 -186 3191 3192 -2220 0
-185 186 3191 -3192 -2220 0
-185 -186 2220 0
-185 3192 2220 0
185 186 2220 0
185 -3192 2220 0
-3191 2220 0
-2217 2218 2219 -2220 -2221 0
-2217 -2218 -2219 -2220 -2221 0
-2218 2219 2221 0
2218 -2219 2221 0
2217 2221 0
2220 2221 0
2217 -2218 2219 2220 -2222 0
-2217 2218 2219 -2220 -2222 0
-2217 -2218 2222 0
-2217 2220 2222 0
2217 2218 2222 0
2217 -2220 2222 0
-2219 2222 0
-223 224 225 -226 -2223 0
-223 -224 -225 -226 -2223 0
-224 225 2223 0
224 -225 2223 0
223 2223 0
226 2223 0
223 -224 225 226 -2224 0
-223 224 225 -226 -2224 0
-223 -224 2224 0
-223 226 2224 0
223 224 2224 0
223 -226 2224 0
-225 2224 0
-233 234 1465 -1466 -2225 0
-233 -234 -1465 -1466 -2225 0
-234 1465 2225 0
234 -1465 2225 0
233 2225 0
1466 2225 0
233 -234 1465 1466 -2226 0
-233 234 1465 -1466 -2226 0
-233 -234 2226 0
-233 1466 2226 0
233 234 2226 0
233 -1466 2226 0
-1465 2226 0
-2223 2224 2225 -2226 -2227 0
-2223 -2224 -2225 -2226 -2227 0
-2224 2225 2227 0
2224 -2225 2227 0
2223 2227 0
2226 2227 0
2223 -2224 2225 2226 -2228 0
-2223 2224 2225 -2226 -2228 0
-2223 -2224 2228 0
-2223 2226 2228 0
2223 2224 2228 0
2223 -2226 2228 0
-2225 2228 0
-217 218 1465 -1466 -2229 0
-217 -218 -1465 -1466 -2229 0
-218 1465 2229 0
218 -1465 2229 0
217 2229 0
1466 2229 0
217 -218 1465 1466 -2230 0
-217 218 1465 -1466 -2230 0
-217 -218 2230 0
-217 1466 2230 0
217 218 2230 0
217 -1466 2230 0
-1465 2230 0
-223 224 225 -226 -2231 0
-223 -224 -225 -226 -2231 0
-224 225 2231 0
224 -225 2231 0
223 2231 0
226 2231 0
223 -224 225 226 -2232 0
-223 224 225 -226 -2232 0
-223 -224 2232 0
-223 226 2232 0
223 224 2232 0
223 -226 2232 0
-225 2232 0
-233 234 1465 -1466 -2233 0
-233 -234 -1465 -1466 -2233 0
-234 1465 2233 0
234 -1465 2233 0
233 2233 0
1466 2233 0
233 -234 1465 1466 -2234 0
-233 234 1465 -1466 -2234 0
-233 -234 2234 0
-233 1466 2234 0
233 234 2234 0
233 -1466 2234 0
-1465 2234 0
-2231 2232 2233 -2234 -2235 0
-2231 -2232 -2233 -2234 -2235 0
-2232 2233 2235 0
2232 -2233 2235 0
2231 2235 0
2234 2235 0
2231 -2232 2233 2234 -2236 0
-2231 2232 2233 -2234 -2236 0
-2231 -2232 2236 0
-2231 2234 2236 0
2231 2232 2236 0
2231 -2234 2236 0
-2233 2236 0
-219 220 1465 -1466 -2237 0
-219 -220 -1465 -1466 -2237 0
-220 1465 2237 0
220 -1465 2237 0
219 2237 0
1466 2237 0
219 -220 1465 1466 -2238 0
-219 220 1465 -1466 -2238 0
-219 -220 2238 0
-219 1466 2238 0
219 220 2238 0
219 -1466 2238 0
-1465 2238 0
-2247 2248 2249 -2250 -2239 0
-2247 -2248 -2249 -2250 -2239 0
-2248 2249 2239 0
2248 -2249 2239 0
2247 2239 0
2250 2239 0
2247 -2248 2249 2250 -2240 0
-2247 2248 2249 -2250 -2240 0
-2247 -2248 2240 0
-2247 2250 2240 0
2247 2248 2240 0
2247 -2250 2240 0
-2249 2240 0
-1 2 27 -28 -2241 0
-1 -2 -27 -28 -2241 0
-2 27 2241 0
2 -27 2241 0
1 2241 0
28 2241 0
1 -2 27 28 -2242 0
-1 2 27 -28 -2242 0
-1 -2 2242 0
-1 28 2242 0
1 2 2242 0
1 -28 2242 0
-27 2242 0
-1 2 141 -142 -2243 0
-1 -2 -141 -142 -2243 0
-2 141 2243 0
2 -141 2243 0
1 2243 0
142 2243 0
1 -2 141 142 -2244 0
-1 2 141 -142 -2244 0
-1 -2 2244 0
-1 142 2244 0
1 2 2244 0
1 -142 2244 0
-141 2244 0
-1 2 139 -140 -2245 0
-1 -2 -139 -140 -2245 0
-2 139 2245 0
2 -139 2245 0
1 2245 0
140 2245 0
1 -2 139 140 -2246 0
-1 2 139 -140 -2246 0
-1 -2 2246 0
-1 140 2246 0
1 2 2246 0
1 -140 2246 0
-139 2246 0
-1 2 7 -8 -2247 0
-1 -2 -7 -8 -2247 0
-2 7 2247 0
2 -7 2247 0
1 2247 0
8 2247 0
1 -2 7 8 -2248 0
-1 2 7 -8 -2248 0
-1 -2 2248 0
-1 8 2248 0
1 2 2248 0
1 -8 2248 0
-7 2248 0
-9 10 11 -12 -2249 0
-9 -10 -11 -12 -2249 0
-10 11 2249 0
10 -11 2249 0
9 2249 0
12 2249 0
9 -10 11 12 -2250 0
-9 10 11 -12 -2250 0
-9 -10 2250 0
-9 12 2250 0
9 10 2250 0
9 -12 2250 0
-11 2250 0
-91 92 197 -198 -2251 0
-91 -92 -197 -198 -2251 0
-92 197 2251 0
92 -197 2251 0
91 2251 0
198 2251 0
91 -92 197 198 -2252 0
-91 92 197 -198 -2252 0
-91 -92 2252 0
-91 198 2252 0
91 92 2252 0
91 -198 2252 0
-197 2252 0
-231 232 1303 -1304 -2253 0
-231 -232 -1303 -1304 -2253 0
-232 1303 2253 0
232 -1303 2253 0
231 2253 0
1304 2253 0
231 -232 1303 1304 -2254 0
-231 232 1303 -1304 -2254 0
-231 -232 2254 0
-231 1304 2254 0
231 232 2254 0
231 -1304 2254 0
-1303 2254 0
-2251 2252 2253 -2254 -2255 0
-2251 -2252 -2253 -2254 -2255 0
-2252 2253 2255 0
2252 -2253 2255 0
2251 2255 0
2254 2255 0
2251 -2252 2253 2254 -2256 0
-2251 2252 2253 -2254 -2256 0
-2251 -2252 2256 0
-2251 2254 2256 0
2251 2252 2256 0
2251 -2254 2256 0
-2253 2256 0
-2753 2754 2755 -2756 -2257 0
-2753 -2754 -2755 -2756 -2257 0
-2754 2755 2257 0
2754 -2755 2257 0
2753 2257 0
2756 2257 0
2753 -2754 2755 2756 -2258 0
-2753 2754 2755 -2756 -2258 0
-2753 -2754 2258 0
-2753 2756 2258 0
2753 2754 2258 0
2753 -2756 2258 0
-2755 2258 0
-2757 2758 2759 -2760 -2259 0
-2757 -2758 -2759 -2760 -2259 0
-2758 2759 2259 0
2758 -2759 2259 0
2757 2259 0
2760 2259 0
2757 -2758 2759 2760 -2260 0
-2757 2758 2759 -2760 -2260 0
-2757 -2758 2260 0
-2757 2760 2260 0
2757 2758 2260 0
2757 -2760 2260 0
-2759 2260 0
-2257 2258 2259 -2260 -2261 0
-2257 -2258 -2259 -2260 -2261 0
-2258 2259 2261 0
2258 -2259 2261 0
2257 2261 0
2260 2261 0
2257 -2258 2259 2260 -2262 0
-2257 2258 2259 -2260 -2262 0
-2257 -2258 2262 0
-2257 2260 2262 0
2257 2258 2262 0
2257 -2260 2262 0
-2259 2262 0
-41 42 89 -90 -2263 0
-41 -42 -89 -90 -2263 0
-42 89 2263 0
42 -89 2263 0
41 2263 0
90 2263 0
41 -42 89 90 -2264 0
-41 42 89 -90 -2264 0
-41 -42 2264 0
-41 90 2264 0
41 42 2264 0
41 -90 2264 0
-89 2264 0
-259 260 2263 -2264 -2265 0
-259 -260 -2263 -2264 -2265 0
-260 2263 2265 0
260 -2263 2265 0
259 2265 0
2264 2265 0
259 -260 2263 2264 -2266 0
-259 260 2263 -2264 -2266 0
-259 -260 2266 0
-259 2264 2266 0
259 260 2266 0
259 -2264 2266 0
-2263 2266 0
-259 260 2761 -2762 -2267 0
-259 -260 -2761 -2762 -2267 0
-260 2761 2267 0
260 -2761 2267 0
259 2267 0
2762 2267 0
259 -260 2761 2762 -2268 0
-259 260 2761 -2762 -2268 0
-259 -260 2268 0
-259 2762 2268 0
259 260 2268 0
259 -2762 2268 0
-2761 2268 0
-787 788 2763 -2764 -2269 0
-787 -788 -2763 -2764 -2269 0
-788 2763 2269 0
788 -2763 2269 0
787 2269 0
2764 2269 0
787 -788 2763 2764 -2270 0
-787 788 2763 -2764 -2270 0
-787 -788 2270 0
-787 2764 2270 0
787 788 2270 0
787 -2764 2270 0
-2763 2270 0
-2267 2268 2269 -2270 -2271 0
-2267 -2268 -2269 -2270 -2271 0
-2268 2269 2271 0
2268 -2269 2271 0
2267 2271 0
2270 2271 0
2267 -2268 2269 2270 -2272 0
-2267 2268 2269 -2270 -2272 0
-2267 -2268 2272 0
-2267 2270 2272 0
2267 2268 2272 0
2267 -2270 2272 0
-2269 2272 0
-1867 1868 1897 -1898 -2273 0
-1867 -1868 -1897 -1898 -2273 0
-1868 1897 2273 0
1868 -1897 2273 0
1867 2273 0
1898 2273 0
1867 -1868 1897 1898 -2274 0
-1867 1868 1897 -1898 -2274 0
-1867 -1868 2274 0
-1867 1898 2274 0
1867 1868 2274 0
1867 -1898 2274 0
-1897 2274 0
-787 788 2765 -2766 -2275 0
-787 -788 -2765 -2766 -2275 0
-788 2765 2275 0
788 -2765 2275 0
787 2275 0
2766 2275 0
787 -788 2765 2766 -2276 0
-787 788 2765 -2766 -2276 0
-787 -788 2276 0
-787 2766 2276 0
787 788 2276 0
787 -2766 2276 0
-2765 2276 0
-1303 1304 1007 -1008 -2277 0
-1303 -1304 -1007 -1008 -2277 0
-1304 1007 2277 0
1304 -1007 2277 0
1303 2277 0
1008 2277 0
1303 -1304 1007 1008 -2278 0
-1303 1304 1007 -1008 -2278 0
-1303 -1304 2278 0
-1303 1008 2278 0
1303 1304 2278 0
1303 -1008 2278 0
-1007 2278 0
-2275 2276 2277 -2278 -2279 0
-2275 -2276 -2277 -2278 -2279 0
-2276 2277 2279 0
2276 -2277 2279 0
2275 2279 0
2278 2279 0
2275 -2276 2277 2278 -2280 0
-2275 2276 2277 -2278 -2280 0
-2275 -2276 2280 0
-2275 2278 2280 0
2275 2276 2280 0
2275 -2278 2280 0
-2277 2280 0
-179 180 1011 -1012 -2281 0
-179 -180 -1011 -1012 -2281 0
-180 1011 2281 0
180 -1011 2281 0
179 2281 0
1012 2281 0
179 -180 1011 1012 -2282 0
-179 180 1011 -1012 -2282 0
-179 -180 2282 0
-179 1012 2282 0
179 180 2282 0
179 -1012 2282 0
-1011 2282 0
-1011 1012 1803 -1804 -2283 0
-1011 -1012 -1803 -1804 -2283 0
-1012 1803 2283 0
1012 -1803 2283 0
1011 2283 0
1804 2283 0
1011 -1012 1803 1804 -2284 0
-1011 1012 1803 -1804 -2284 0
-1011 -1012 2284 0
-1011 1804 2284 0
1011 1012 2284 0
1011 -1804 2284 0
-1803 2284 0
-1409 1410 1011 -1012 -2285 0
-1409 -1410 -1011 -1012 -2285 0
-1410 1011 2285 0
1410 -1011 2285 0
1409 2285 0
1012 2285 0
1409 -1410 1011 1012 -2286 0
-1409 1410 1011 -1012 -2286 0
-1409 -1410 2286 0
-1409 1012 2286 0
1409 1410 2286 0
1409 -1012 2286 0
-1011 2286 0
-2283 2284 2285 -2286 -2287 0
-2283 -2284 -2285 -2286 -2287 0
-2284 2285 2287 0
2284 -2285 2287 0
2283 2287 0
2286 2287 0
2283 -2284 2285 2286 -2288 0
-2283 2284 2285 -2286 -2288 0
-2283 -2284 2288 0
-2283 2286 2288 0
2283 2284 2288 0
2283 -2286 2288 0
-2285 2288 0
-2433 2434 2435 -2436 -2289 0
-2433 -2434 -2435 -2436 -2289 0
-2434 2435 2289 0
2434 -2435 2289 0
2433 2289 0
2436 2289 0
2433 -2434 2435 2436 -2290 0
-2433 2434 2435 -2436 -2290 0
-2433 -2434 2290 0
-2433 2436 2290 0
2433 2434 2290 0
2433 -2436 2290 0
-2435 2290 0
-2437 2438 2439 -2440 -2291 0
-2437 -2438 -2439 -2440 -2291 0
-2438 2439 2291 0
2438 -2439 2291 0
2437 2291 0
2440 2291 0
2437 -2438 2439 2440 -2292 0
-2437 2438 2439 -2440 -2292 0
-2437 -2438 2292 0
-2437 2440 2292 0
2437 2438 2292 0
2437 -2440 2292 0
-2439 2292 0
-233 234 1805 -1806 -2293 0
-233 -234 -1805 -1806 -2293 0
-234 1805 2293 0
234 -1805 2293 0
233 2293 0
1806 2293 0
233 -234 1805 1806 -2294 0
-233 234 1805 -1806 -2294 0
-233 -234 2294 0
-233 1806 2294 0
233 234 2294 0
233 -1806 2294 0
-1805 2294 0
-1469 1470 1401 -1402 -2295 0
-1469 -1470 -1401 -1402 -2295 0
-1470 1401 2295 0
1470 -1401 2295 0
1469 2295 0
1402 2295 0
1469 -1470 1401 1402 -2296 0
-1469 1470 1401 -1402 -2296 0
-1469 -1470 2296 0
-1469 1402 2296 0
1469 1470 2296 0
1469 -1402 2296 0
-1401 2296 0
-223 224 225 -226 -2297 0
-223 -224 -225 -226 -2297 0
-224 225 2297 0
224 -225 2297 0
223 2297 0
226 2297 0
223 -224 225 226 -2298 0
-223 224 225 -226 -2298 0
-223 -224 2298 0
-223 226 2298 0
223 224 2298 0
223 -226 2298 0
-225 2298 0
-1805 1806 1401 -1402 -2299 0
-1805 -1806 -1401 -1402 -2299 0
-1806 1401 2299 0
1806 -1401 2299 0
1805 2299 0
1402 2299 0
1805 -1806 1401 1402 -2300 0
-1805 1806 1401 -1402 -2300 0
-1805 -1806 2300 0
-1805 1402 2300 0
1805 1806 2300 0
1805 -1402 2300 0
-1401 2300 0
-223 224 225 -226 -2301 0
-223 -224 -225 -226 -2301 0
-224 225 2301 0
224 -225 2301 0
223 2301 0
226 2301 0
223 -224 225 226 -2302 0
-223 224 225 -226 -2302 0
-223 -224 2302 0
-223 226 2302 0
223 224 2302 0
223 -226 2302 0
-225 2302 0
-1805 1806 2301 -2302 -2303 0
-1805 -1806 -2301 -2302 -2303 0
-1806 2301 2303 0
1806 -2301 2303 0
1805 2303 0
2302 2303 0
1805 -1806 2301 2302 -2304 0
-1805 1806 2301 -2302 -2304 0
-1805 -1806 2304 0
-1805 2302 2304 0
1805 1806 2304 0
1805 -2302 2304 0
-2301 2304 0
-233 234 1805 -1806 -2305 0
-233 -234 -1805 -1806 -2305 0
-234 1805 2305 0
234 -1805 2305 0
233 2305 0
1806 2305 0
233 -234 1805 1806 -2306 0
-233 234 1805 -1806 -2306 0
-233 -234 2306 0
-233 1806 2306 0
233 234 2306 0
233 -1806 2306 0
-1805 2306 0
-1469 1470 1897 -1898 -2307 0
-1469 -1470 -1897 -1898 -2307 0
-1470 1897 2307 0
1470 -1897 2307 0
1469 2307 0
1898 2307 0
1469 -1470 1897 1898 -2308 0
-1469 1470 1897 -1898 -2308 0
-1469 -1470 2308 0
-1469 1898 2308 0
1469 1470 2308 0
1469 -1898 2308 0
-1897 2308 0
-2305 2306 2307 -2308 -2309 0
-2305 -2306 -2307 -2308 -2309 0
-2306 2307 2309 0
2306 -2307 2309 0
2305 2309 0
2308 2309 0
2305 -2306 2307 2308 -2310 0
-2305 2306 2307 -2308 -2310 0
-2305 -2306 2310 0
-2305 2308 2310 0
2305 2306 2310 0
2305 -2308 2310 0
-2307 2310 0
-233 234 1469 -1470 -2311 0
-233 -234 -1469 -1470 -2311 0
-234 1469 2311 0
234 -1469 2311 0
233 2311 0
1470 2311 0
233 -234 1469 1470 -2312 0
-233 234 1469 -1470 -2312 0
-233 -234 2312 0
-233 1470 2312 0
233 234 2312 0
233 -1470 2312 0
-1469 2312 0
-1897 1898 1401 -1402 -2313 0
-1897 -1898 -1401 -1402 -2313 0
-1898 1401 2313 0
1898 -1401 2313 0
1897 2313 0
1402 2313 0
1897 -1898 1401 1402 -2314 0
-1897 1898 1401 -1402 -2314 0
-1897 -1898 2314 0
-1897 1402 2314 0
1897 1898 2314 0
1897 -1402 2314 0
-1401 2314 0
-2311 2312 2313 -2314 -2315 0
-2311 -2312 -2313 -2314 -2315 0
-2312 2313 2315 0
2312 -2313 2315 0
2311 2315 0
2314 2315 0
2311 -2312 2313 2314 -2316 0
-2311 2312 2313 -2314 -2316 0
-2311 -2312 2316 0
-2311 2314 2316 0
2311 2312 2316 0
2311 -2314 2316 0
-2313 2316 0
-2309 2310 2315 -2316 -2317 0
-2309 -2310 -2315 -2316 -2317 0
-2310 2315 2317 0
2310 -2315 2317 0
2309 2317 0
2316 2317 0
2309 -2310 2315 2316 -2318 0
-2309 2310 2315 -2316 -2318 0
-2309 -2310 2318 0
-2309 2316 2318 0
2309 2310 2318 0
2309 -2316 2318 0
-2315 2318 0
-1053 1054 1401 -1402 -2319 0
-1053 -1054 -1401 -1402 -2319 0
-1054 1401 2319 0
1054 -1401 2319 0
1053 2319 0
1402 2319 0
1053 -1054 1401 1402 -2320 0
-1053 1054 1401 -1402 -2320 0
-1053 -1054 2320 0
-1053 1402 2320 0
1053 1054 2320 0
1053 -1402 2320 0
-1401 2320 0
-223 224 225 -226 -2321 0
-223 -224 -225 -226 -2321 0
-224 225 2321 0
224 -225 2321 0
223 2321 0
226 2321 0
223 -224 225 226 -2322 0
-223 224 225 -226 -2322 0
-223 -224 2322 0
-223 226 2322 0
223 224 2322 0
223 -226 2322 0
-225 2322 0
-1401 1402 2321 -2322 -2323 0
-1401 -1402 -2321 -2322 -2323 0
-1402 2321 2323 0
1402 -2321 2323 0
1401 2323 0
2322 2323 0
1401 -1402 2321 2322 -2324 0
-1401 1402 2321 -2322 -2324 0
-1401 -1402 2324 0
-1401 2322 2324 0
1401 1402 2324 0
1401 -2322 2324 0
-2321 2324 0
-1805 1806 1053 -1054 -2325 0
-1805 -1806 -1053 -1054 -2325 0
-1806 1053 2325 0
1806 -1053 2325 0
1805 2325 0
1054 2325 0
1805 -1806 1053 1054 -2326 0
-1805 1806 1053 -1054 -2326 0
-1805 -1806 2326 0
-1805 1054 2326 0
1805 1806 2326 0
1805 -1054 2326 0
-1053 2326 0
-2323 2324 2325 -2326 -2327 0
-2323 -2324 -2325 -2326 -2327 0
-2324 2325 2327 0
2324 -2325 2327 0
2323 2327 0
2326 2327 0
2323 -2324 2325 2326 -2328 0
-2323 2324 2325 -2326 -2328 0
-2323 -2324 2328 0
-2323 2326 2328 0
2323 2324 2328 0
2323 -2326 2328 0
-2325 2328 0
-207 208 2783 -2784 -2329 0
-207 -208 -2783 -2784 -2329 0
-208 2783 2329 0
208 -2783 2329 0
207 2329 0
2784 2329 0
207 -208 2783 2784 -2330 0
-207 208 2783 -2784 -2330 0
-207 -208 2330 0
-207 2784 2330 0
207 208 2330 0
207 -2784 2330 0
-2783 2330 0
-1805 1806 2785 -2786 -2331 0
-1805 -1806 -2785 -2786 -2331 0
-1806 2785 2331 0
1806 -2785 2331 0
1805 2331 0
2786 2331 0
1805 -1806 2785 2786 -2332 0
-1805 1806 2785 -2786 -2332 0
-1805 -1806 2332 0
-1805 2786 2332 0
1805 1806 2332 0
1805 -2786 2332 0
-2785 2332 0
-2329 2330 2331 -2332 -2333 0
-2329 -2330 -2331 -2332 -2333 0
-2330 2331 2333 0
2330 -2331 2333 0
2329 2333 0
2332 2333 0
2329 -2330 2331 2332 -2334 0
-2329 2330 2331 -2332 -2334 0
-2329 -2330 2334 0
-2329 2332 2334 0
2329 2330 2334 0
2329 -2332 2334 0
-2331 2334 0
-2769 2770 2773 -2774 -2335 0
-2769 -2770 -2773 -2774 -2335 0
-2770 2773 2335 0
2770 -2773 2335 0
2769 2335 0
2774 2335 0
2769 -2770 2773 2774 -2336 0
-2769 2770 2773 -2774 -2336 0
-2769 -2770 2336 0
-2769 2774 2336 0
2769 2770 2336 0
2769 -2774 2336 0
-2773 2336 0
-2777 2778 2781 -2782 -2337 0
-2777 -2778 -2781 -2782 -2337 0
-2778 2781 2337 0
2778 -2781 2337 0
2777 2337 0
2782 2337 0
2777 -2778 2781 2782 -2338 0
-2777 2778 2781 -2782 -2338 0
-2777 -2778 2338 0
-2777 2782 2338 0
2777 2778 2338 0
2777 -2782 2338 0
-2781 2338 0
-2335 2336 2337 -2338 -2339 0
-2335 -2336 -2337 -2338 -2339 0
-2336 2337 2339 0
2336 -2337 2339 0
2335 2339 0
2338 2339 0
2335 -2336 2337 2338 -2340 0
-2335 2336 2337 -2338 -2340 0
-2335 -2336 2340 0
-2335 2338 2340 0
2335 2336 2340 0
2335 -2338 2340 0
-2337 2340 0
-215 216 2787 -2788 -2341 0
-215 -216 -2787 -2788 -2341 0
-216 2787 2341 0
216 -2787 2341 0
215 2341 0
2788 2341 0
215 -216 2787 2788 -2342 0
-215 216 2787 -2788 -2342 0
-215 -216 2342 0
-215 2788 2342 0
215 216 2342 0
215 -2788 2342 0
-2787 2342 0
-1805 1806 1469 -1470 -2343 0
-1805 -1806 -1469 -1470 -2343 0
-1806 1469 2343 0
1806 -1469 2343 0
1805 2343 0
1470 2343 0
1805 -1806 1469 1470 -2344 0
-1805 1806 1469 -1470 -2344 0
-1805 -1806 2344 0
-1805 1470 2344 0
1805 1806 2344 0
1805 -1470 2344 0
-1469 2344 0
-2341 2342 2343 -2344 -2345 0
-2341 -2342 -2343 -2344 -2345 0
-2342 2343 2345 0
2342 -2343 2345 0
2341 2345 0
2344 2345 0
2341 -2342 2343 2344 -2346 0
-2341 2342 2343 -2344 -2346 0
-2341 -2342 2346 0
-2341 2344 2346 0
2341 2342 2346 0
2341 -2344 2346 0
-2343 2346 0
-209 210 2789 -2790 -2347 0
-209 -210 -2789 -2790 -2347 0
-210 2789 2347 0
210 -2789 2347 0
209 2347 0
2790 2347 0
209 -210 2789 2790 -2348 0
-209 210 2789 -2790 -2348 0
-209 -210 2348 0
-209 2790 2348 0
209 210 2348 0
209 -2790 2348 0
-2789 2348 0
-215 216 1805 -1806 -2349 0
-215 -216 -1805 -1806 -2349 0
-216 1805 2349 0
216 -1805 2349 0
215 2349 0
1806 2349 0
215 -216 1805 1806 -2350 0
-215 216 1805 -1806 -2350 0
-215 -216 2350 0
-215 1806 2350 0
215 216 2350 0
215 -1806 2350 0
-1805 2350 0
-2347 2348 2349 -2350 -2351 0
-2347 -2348 -2349 -2350 -2351 0
-2348 2349 2351 0
2348 -2349 2351 0
2347 2351 0
2350 2351 0
2347 -2348 2349 2350 -2352 0
-2347 2348 2349 -2350 -2352 0
-2347 -2348 2352 0
-2347 2350 2352 0
2347 2348 2352 0
2347 -2350 2352 0
-2349 2352 0
-207 208 2791 -2792 -2353 0
-207 -208 -2791 -2792 -2353 0
-208 2791 2353 0
208 -2791 2353 0
207 2353 0
2792 2353 0
207 -208 2791 2792 -2354 0
-207 208 2791 -2792 -2354 0
-207 -208 2354 0
-207 2792 2354 0
207 208 2354 0
207 -2792 2354 0
-2791 2354 0
-215 216 1805 -1806 -2355 0
-215 -216 -1805 -1806 -2355 0
-216 1805 2355 0
216 -1805 2355 0
215 2355 0
1806 2355 0
215 -216 1805 1806 -2356 0
-215 216 1805 -1806 -2356 0
-215 -216 2356 0
-215 1806 2356 0
215 216 2356 0
215 -1806 2356 0
-1805 2356 0
-2353 2354 2355 -2356 -2357 0
-2353 -2354 -2355 -2356 -2357 0
-2354 2355 2357 0
2354 -2355 2357 0
2353 2357 0
2356 2357 0
2353 -2354 2355 2356 -2358 0
-2353 2354 2355 -2356 -2358 0
-2353 -2354 2358 0
-2353 2356 2358 0
2353 2354 2358 0
2353 -2356 2358 0
-2355 2358 0
-215 216 2793 -2794 -2359 0
-215 -216 -2793 -2794 -2359 0
-216 2793 2359 0
216 -2793 2359 0
215 2359 0
2794 2359 0
215 -216 2793 2794 -2360 0
-215 216 2793 -2794 -2360 0
-215 -216 2360 0
-215 2794 2360 0
215 216 2360 0
215 -2794 2360 0
-2793 2360 0
-1805 1806 1469 -1470 -2361 0
-1805 -1806 -1469 -1470 -2361 0
-1806 1469 2361 0
1806 -1469 2361 0
1805 2361 0
1470 2361 0
1805 -1806 1469 1470 -2362 0
-1805 1806 1469 -1470 -2362 0
-1805 -1806 2362 0
-1805 1470 2362 0
1805 1806 2362 0
1805 -1470 2362 0
-1469 2362 0
-2359 2360 2361 -2362 -2363 0
-2359 -2360 -2361 -2362 -2363 0
-2360 2361 2363 0
2360 -2361 2363 0
2359 2363 0
2362 2363 0
2359 -2360 2361 2362 -2364 0
-2359 2360 2361 -2362 -2364 0
-2359 -2360 2364 0
-2359 2362 2364 0
2359 2360 2364 0
2359 -2362 2364 0
-2361 2364 0
-213 214 2795 -2796 -2365 0
-213 -214 -2795 -2796 -2365 0
-214 2795 2365 0
214 -2795 2365 0
213 2365 0
2796 2365 0
213 -214 2795 2796 -2366 0
-213 214 2795 -2796 -2366 0
-213 -214 2366 0
-213 2796 2366 0
213 214 2366 0
213 -2796 2366 0
-2795 2366 0
-215 216 1805 -1806 -2367 0
-215 -216 -1805 -1806 -2367 0
-216 1805 2367 0
216 -1805 2367 0
215 2367 0
1806 2367 0
215 -216 1805 1806 -2368 0
-215 216 1805 -1806 -2368 0
-215 -216 2368 0
-215 1806 2368 0
215 216 2368 0
215 -1806 2368 0
-1805 2368 0
-2365 2366 2367 -2368 -2369 0
-2365 -2366 -2367 -2368 -2369 0
-2366 2367 2369 0
2366 -2367 2369 0
2365 2369 0
2368 2369 0
2365 -2366 2367 2368 -2370 0
-2365 2366 2367 -2368 -2370 0
-2365 -2366 2370 0
-2365 2368 2370 0
2365 2366 2370 0
2365 -2368 2370 0
-2367 2370 0
-213 214 2797 -2798 -2371 0
-213 -214 -2797 -2798 -2371 0
-214 2797 2371 0
214 -2797 2371 0
213 2371 0
2798 2371 0
213 -214 2797 2798 -2372 0
-213 214 2797 -2798 -2372 0
-213 -214 2372 0
-213 2798 2372 0
213 214 2372 0
213 -2798 2372 0
-2797 2372 0
-215 216 1805 -1806 -2373 0
-215 -216 -1805 -1806 -2373 0
-216 1805 2373 0
216 -1805 2373 0
215 2373 0
1806 2373 0
215 -216 1805 1806 -2374 0
-215 216 1805 -1806 -2374 0
-215 -216 2374 0
-215 1806 2374 0
215 216 2374 0
215 -1806 2374 0
-1805 2374 0
-2371 2372 2373 -2374 -2375 0
-2371 -2372 -2373 -2374 -2375 0
-2372 2373 2375 0
2372 -2373 2375 0
2371 2375 0
2374 2375 0
2371 -2372 2373 2374 -2376 0
-2371 2372 2373 -2374 -2376 0
-2371 -2372 2376 0
-2371 2374 2376 0
2371 2372 2376 0
2371 -2374 2376 0
-2373 2376 0
-97 98 99 -100 -2377 0
-97 -98 -99 -100 -2377 0
-98 99 2377 0
98 -99 2377 0
97 2377 0
100 2377 0
97 -98 99 100 -2378 0
-97 98 99 -100 -2378 0
-97 -98 2378 0
-97 100 2378 0
97 98 2378 0
97 -100 2378 0
-99 2378 0
-97 98 99 -100 -2379 0
-97 -98 -99 -100 -2379 0
-98 99 2379 0
98 -99 2379 0
97 2379 0
100 2379 0
97 -98 99 100 -2380 0
-97 98 99 -100 -2380 0
-97 -98 2380 0
-97 100 2380 0
97 98 2380 0
97 -100 2380 0
-99 2380 0
-97 98 99 -100 -2381 0
-97 -98 -99 -100 -2381 0
-98 99 2381 0
98 -99 2381 0
97 2381 0
100 2381 0
97 -98 99 100 -2382 0
-97 98 99 -100 -2382 0
-97 -98 2382 0
-97 100 2382 0
97 98 2382 0
97 -100 2382 0
-99 2382 0
-97 98 99 -100 -2383 0
-97 -98 -99 -100 -2383 0
-98 99 2383 0
98 -99 2383 0
97 2383 0
100 2383 0
97 -98 99 100 -2384 0
-97 98 99 -100 -2384 0
-97 -98 2384 0
-97 100 2384 0
97 98 2384 0
97 -100 2384 0
-99 2384 0
-33 34 181 -182 -2385 0
-33 -34 -181 -182 -2385 0
-34 181 2385 0
34 -181 2385 0
33 2385 0
182 2385 0
33 -34 181 182 -2386 0
-33 34 181 -182 -2386 0
-33 -34 2386 0
-33 182 2386 0
33 34 2386 0
33 -182 2386 0
-181 2386 0
-187 188 189 -190 -2387 0
-187 -188 -189 -190 -2387 0
-188 189 2387 0
188 -189 2387 0
187 2387 0
190 2387 0
187 -188 189 190 -2388 0
-187 188 189 -190 -2388 0
-187 -188 2388 0
-187 190 2388 0
187 188 2388 0
187 -190 2388 0
-189 2388 0
-89 90 141 -142 -2389 0
-89 -90 -141 -142 -2389 0
-90 141 2389 0
90 -141 2389 0
89 2389 0
142 2389 0
89 -90 141 142 -2390 0
-89 90 141 -142 -2390 0
-89 -90 2390 0
-89 142 2390 0
89 90 2390 0
89 -142 2390 0
-141 2390 0
-89 90 787 -788 -2391 0
-89 -90 -787 -788 -2391 0
-90 787 2391 0
90 -787 2391 0
89 2391 0
788 2391 0
89 -90 787 788 -2392 0
-89 90 787 -788 -2392 0
-89 -90 2392 0
-89 788 2392 0
89 90 2392 0
89 -788 2392 0
-787 2392 0
-89 90 159 -160 -2393 0
-89 -90 -159 -160 -2393 0
-90 159 2393 0
90 -159 2393 0
89 2393 0
160 2393 0
89 -90 159 160 -2394 0
-89 90 159 -160 -2394 0
-89 -90 2394 0
-89 160 2394 0
89 90 2394 0
89 -160 2394 0
-159 2394 0
-2391 2392 2393 -2394 -2395 0
-2391 -2392 -2393 -2394 -2395 0
-2392 2393 2395 0
2392 -2393 2395 0
2391 2395 0
2394 2395 0
2391 -2392 2393 2394 -2396 0
-2391 2392 2393 -2394 -2396 0
-2391 -2392 2396 0
-2391 2394 2396 0
2391 2392 2396 0
2391 -2394 2396 0
-2393 2396 0
-2389 2390 2395 -2396 -2397 0
-2389 -2390 -2395 -2396 -2397 0
-2390 2395 2397 0
2390 -2395 2397 0
2389 2397 0
2396 2397 0
2389 -2390 2395 2396 -2398 0
-2389 2390 2395 -2396 -2398 0
-2389 -2390 2398 0
-2389 2396 2398 0
2389 2390 2398 0
2389 -2396 2398 0
-2395 2398 0
-2413 2414 2415 -2416 -2399 0
-2413 -2414 -2415 -2416 -2399 0
-2414 2415 2399 0
2414 -2415 2399 0
2413 2399 0
2416 2399 0
2413 -2414 2415 2416 -2400 0
-2413 2414 2415 -2416 -2400 0
-2413 -2414 2400 0
-2413 2416 2400 0
2413 2414 2400 0
2413 -2416 2400 0
-2415 2400 0
-2417 2418 2419 -2420 -2401 0
-2417 -2418 -2419 -2420 -2401 0
-2418 2419 2401 0
2418 -2419 2401 0
2417 2401 0
2420 2401 0
2417 -2418 2419 2420 -2402 0
-2417 2418 2419 -2420 -2402 0
-2417 -2418 2402 0
-2417 2420 2402 0
2417 2418 2402 0
2417 -2420 2402 0
-2419 2402 0
-2421 2422 2423 -2424 -2403 0
-2421 -2422 -2423 -2424 -2403 0
-2422 2423 2403 0
2422 -2423 2403 0
2421 2403 0
2424 2403 0
2421 -2422 2423 2424 -2404 0
-2421 2422 2423 -2424 -2404 0
-2421 -2422 2404 0
-2421 2424 2404 0
2421 2422 2404 0
2421 -2424 2404 0
-2423 2404 0
-2425 2426 2427 -2428 -2405 0
-2425 -2426 -2427 -2428 -2405 0
-2426 2427 2405 0
2426 -2427 2405 0
2425 2405 0
2428 2405 0
2425 -2426 2427 2428 -2406 0
-2425 2426 2427 -2428 -2406 0
-2425 -2426 2406 0
-2425 2428 2406 0
2425 2426 2406 0
2425 -2428 2406 0
-2427 2406 0
-23 24 59 -60 -2407 0
-23 -24 -59 -60 -2407 0
-24 59 2407 0
24 -59 2407 0
23 2407 0
60 2407 0
23 -24 59 60 -2408 0
-23 24 59 -60 -2408 0
-23 -24 2408 0
-23 60 2408 0
23 24 2408 0
23 -60 2408 0
-59 2408 0
-2429 2430 2431 -2432 -2409 0
-2429 -2430 -2431 -2432 -2409 0
-2430 2431 2409 0
2430 -2431 2409 0
2429 2409 0
2432 2409 0
2429 -2430 2431 2432 -2410 0
-2429 2430 2431 -2432 -2410 0
-2429 -2430 2410 0
-2429 2432 2410 0
2429 2430 2410 0
2429 -2432 2410 0
-2431 2410 0
-19 20 59 -60 -2411 0
-19 -20 -59 -60 -2411 0
-20 59 2411 0
20 -59 2411 0
19 2411 0
60 2411 0
19 -20 59 60 -2412 0
-19 20 59 -60 -2412 0
-19 -20 2412 0
-19 60 2412 0
19 20 2412 0
19 -60 2412 0
-59 2412 0
-3213 3214 3215 -3216 -2413 0
-3213 -3214 -3215 -3216 -2413 0
-3214 3215 2413 0
3214 -3215 2413 0
3213 2413 0
3216 2413 0
3213 -3214 3215 3216 -2414 0
-3213 3214 3215 -3216 -2414 0
-3213 -3214 2414 0
-3213 3216 2414 0
3213 3214 2414 0
3213 -3216 2414 0
-3215 2414 0
-203 204 3217 -3218 -2415 0
-203 -204 -3217 -3218 -2415 0
-204 3217 2415 0
204 -3217 2415 0
203 2415 0
3218 2415 0
203 -204 3217 3218 -2416 0
-203 204 3217 -3218 -2416 0
-203 -204 2416 0
-203 3218 2416 0
203 204 2416 0
203 -3218 2416 0
-3217 2416 0
-3197 3198 3201 -3202 -2417 0
-3197 -3198 -3201 -3202 -2417 0
-3198 3201 2417 0
3198 -3201 2417 0
3197 2417 0
3202 2417 0
3197 -3198 3201 3202 -2418 0
-3197 3198 3201 -3202 -2418 0
-3197 -3198 2418 0
-3197 3202 2418 0
3197 3198 2418 0
3197 -3202 2418 0
-3201 2418 0
-3207 3208 3211 -3212 -2419 0
-3207 -3208 -3211 -3212 -2419 0
-3208 3211 2419 0
3208 -3211 2419 0
3207 2419 0
3212 2419 0
3207 -3208 3211 3212 -2420 0
-3207 3208 3211 -3212 -2420 0
-3207 -3208 2420 0
-3207 3212 2420 0
3207 3208 2420 0
3207 -3212 2420 0
-3211 2420 0
-3219 3220 3221 -3222 -2421 0
-3219 -3220 -3221 -3222 -2421 0
-3220 3221 2421 0
3220 -3221 2421 0
3219 2421 0
3222 2421 0
3219 -3220 3221 3222 -2422 0
-3219 3220 3221 -3222 -2422 0
-3219 -3220 2422 0
-3219 3222 2422 0
3219 3220 2422 0
3219 -3222 2422 0
-3221 2422 0
-203 204 3223 -3224 -2423 0
-203 -204 -3223 -3224 -2423 0
-204 3223 2423 0
204 -3223 2423 0
203 2423 0
3224 2423 0
203 -204 3223 3224 -2424 0
-203 204 3223 -3224 -2424 0
-203 -204 2424 0
-203 3224 2424 0
203 204 2424 0
203 -3224 2424 0
-3223 2424 0
-89 90 3225 -3226 -2425 0
-89 -90 -3225 -3226 -2425 0
-90 3225 2425 0
90 -3225 2425 0
89 2425 0
3226 2425 0
89 -90 3225 3226 -2426 0
-89 90 3225 -3226 -2426 0
-89 -90 2426 0
-89 3226 2426 0
89 90 2426 0
89 -3226 2426 0
-3225 2426 0
-197 198 249 -250 -2427 0
-197 -198 -249 -250 -2427 0
-198 249 2427 0
198 -249 2427 0
197 2427 0
250 2427 0
197 -198 249 250 -2428 0
-197 198 249 -250 -2428 0
-197 -198 2428 0
-197 250 2428 0
197 198 2428 0
197 -250 2428 0
-249 2428 0
-3229 3230 3231 -3232 -2429 0
-3229 -3230 -3231 -3232 -2429 0
-3230 3231 2429 0
3230 -3231 2429 0
3229 2429 0
3232 2429 0
3229 -3230 3231 3232 -2430 0
-3229 3230 3231 -3232 -2430 0
-3229 -3230 2430 0
-3229 3232 2430 0
3229 3230 2430 0
3229 -3232 2430 0
-3231 2430 0
-17 18 249 -250 -2431 0
-17 -18 -249 -250 -2431 0
-18 249 2431 0
18 -249 2431 0
17 2431 0
250 2431 0
17 -18 249 250 -2432 0
-17 18 249 -250 -2432 0
-17 -18 2432 0
-17 250 2432 0
17 18 2432 0
17 -250 2432 0
-249 2432 0
-97 98 99 -100 -2433 0
-97 -98 -99 -100 -2433 0
-98 99 2433 0
98 -99 2433 0
97 2433 0
100 2433 0
97 -98 99 100 -2434 0
-97 98 99 -100 -2434 0
-97 -98 2434 0
-97 100 2434 0
97 98 2434 0
97 -100 2434 0
-99 2434 0
-101 102 103 -104 -2435 0
-101 -102 -103 -104 -2435 0
-102 103 2435 0
102 -103 2435 0
101 2435 0
104 2435 0
101 -102 103 104 -2436 0
-101 102 103 -104 -2436 0
-101 -102 2436 0
-101 104 2436 0
101 102 2436 0
101 -104 2436 0
-103 2436 0
-97 98 99 -100 -2437 0
-97 -98 -99 -100 -2437 0
-98 99 2437 0
98 -99 2437 0
97 2437 0
100 2437 0
97 -98 99 100 -2438 0
-97 98 99 -100 -2438 0
-97 -98 2438 0
-97 100 2438 0
97 98 2438 0
97 -100 2438 0
-99 2438 0
-101 102 103 -104 -2439 0
-101 -102 -103 -104 -2439 0
-102 103 2439 0
102 -103 2439 0
101 2439 0
104 2439 0
101 -102 103 104 -2440 0
-101 102 103 -104 -2440 0
-101 -102 2440 0
-101 104 2440 0
101 102 2440 0
101 -104 2440 0
-103 2440 0
-231 232 257 -258 -2441 0
-231 -232 -257 -258 -2441 0
-232 257 2441 0
232 -257 2441 0
231 2441 0
258 2441 0
231 -232 257 258 -2442 0
-231 232 257 -258 -2442 0
-231 -232 2442 0
-231 258 2442 0
231 232 2442 0
231 -258 2442 0
-257 2442 0
-261 262 787 -788 -2443 0
-261 -262 -787 -788 -2443 0
-262 787 2443 0
262 -787 2443 0
261 2443 0
788 2443 0
261 -262 787 788 -2444 0
-261 262 787 -788 -2444 0
-261 -262 2444 0
-261 788 2444 0
261 262 2444 0
261 -788 2444 0
-787 2444 0
-2441 2442 2443 -2444 -2445 0
-2441 -2442 -2443 -2444 -2445 0
-2442 2443 2445 0
2442 -2443 2445 0
2441 2445 0
2444 2445 0
2441 -2442 2443 2444 -2446 0
-2441 2442 2443 -2444 -2446 0
-2441 -2442 2446 0
-2441 2444 2446 0
2441 2442 2446 0
2441 -2444 2446 0
-2443 2446 0
-783 784 799 -800 -2447 0
-783 -784 -799 -800 -2447 0
-784 799 2447 0
784 -799 2447 0
783 2447 0
800 2447 0
783 -784 799 800 -2448 0
-783 784 799 -800 -2448 0
-783 -784 2448 0
-783 800 2448 0
783 784 2448 0
783 -800 2448 0
-799 2448 0
-805 806 2397 -2398 -2449 0
-805 -806 -2397 -2398 -2449 0
-806 2397 2449 0
806 -2397 2449 0
805 2449 0
2398 2449 0
805 -806 2397 2398 -2450 0
-805 806 2397 -2398 -2450 0
-805 -806 2450 0
-805 2398 2450 0
805 806 2450 0
805 -2398 2450 0
-2397 2450 0
-2447 2448 2449 -2450 -2451 0
-2447 -2448 -2449 -2450 -2451 0
-2448 2449 2451 0
2448 -2449 2451 0
2447 2451 0
2450 2451 0
2447 -2448 2449 2450 -2452 0
-2447 2448 2449 -2450 -2452 0
-2447 -2448 2452 0
-2447 2450 2452 0
2447 2448 2452 0
2447 -2450 2452 0
-2449 2452 0
-2445 2446 2451 -2452 -2453 0
-2445 -2446 -2451 -2452 -2453 0
-2446 2451 2453 0
2446 -2451 2453 0
2445 2453 0
2452 2453 0
2445 -2446 2451 2452 -2454 0
-2445 2446 2451 -2452 -2454 0
-2445 -2446 2454 0
-2445 2452 2454 0
2445 2446 2454 0
2445 -2452 2454 0
-2451 2454 0
-231 232 257 -258 -2455 0
-231 -232 -257 -258 -2455 0
-232 257 2455 0
232 -257 2455 0
231 2455 0
258 2455 0
231 -232 257 258 -2456 0
-231 232 257 -258 -2456 0
-231 -232 2456 0
-231 258 2456 0
231 232 2456 0
231 -258 2456 0
-257 2456 0
-261 262 787 -788 -2457 0
-261 -262 -787 -788 -2457 0
-262 787 2457 0
262 -787 2457 0
261 2457 0
788 2457 0
261 -262 787 788 -2458 0
-261 262 787 -788 -2458 0
-261 -262 2458 0
-261 788 2458 0
261 262 2458 0
261 -788 2458 0
-787 2458 0
-2455 2456 2457 -2458 -2459 0
-2455 -2456 -2457 -2458 -2459 0
-2456 2457 2459 0
2456 -2457 2459 0
2455 2459 0
2458 2459 0
2455 -2456 2457 2458 -2460 0
-2455 2456 2457 -2458 -2460 0
-2455 -2456 2460 0
-2455 2458 2460 0
2455 2456 2460 0
2455 -2458 2460 0
-2457 2460 0
-627 628 799 -800 -2461 0
-627 -628 -799 -800 -2461 0
-628 799 2461 0
628 -799 2461 0
627 2461 0
800 2461 0
627 -628 799 800 -2462 0
-627 628 799 -800 -2462 0
-627 -628 2462 0
-627 800 2462 0
627 628 2462 0
627 -800 2462 0
-799 2462 0
-805 806 2397 -2398 -2463 0
-805 -806 -2397 -2398 -2463 0
-806 2397 2463 0
806 -2397 2463 0
805 2463 0
2398 2463 0
805 -806 2397 2398 -2464 0
-805 806 2397 -2398 -2464 0
-805 -806 2464 0
-805 2398 2464 0
805 806 2464 0
805 -2398 2464 0
-2397 2464 0
-2461 2462 2463 -2464 -2465 0
-2461 -2462 -2463 -2464 -2465 0
-2462 2463 2465 0
2462 -2463 2465 0
2461 2465 0
2464 2465 0
2461 -2462 2463 2464 -2466 0
-2461 2462 2463 -2464 -2466 0
-2461 -2462 2466 0
-2461 2464 2466 0
2461 2462 2466 0
2461 -2464 2466 0
-2463 2466 0
-2459 2460 2465 -2466 -2467 0
-2459 -2460 -2465 -2466 -2467 0
-2460 2465 2467 0
2460 -2465 2467 0
2459 2467 0
2466 2467 0
2459 -2460 2465 2466 -2468 0
-2459 2460 2465 -2466 -2468 0
-2459 -2460 2468 0
-2459 2466 2468 0
2459 2460 2468 0
2459 -2466 2468 0
-2465 2468 0
-37 38 257 -258 -2469 0
-37 -38 -257 -258 -2469 0
-38 257 2469 0
38 -257 2469 0
37 2469 0
258 2469 0
37 -38 257 258 -2470 0
-37 38 257 -258 -2470 0
-37 -38 2470 0
-37 258 2470 0
37 38 2470 0
37 -258 2470 0
-257 2470 0
-261 262 787 -788 -2471 0
-261 -262 -787 -788 -2471 0
-262 787 2471 0
262 -787 2471 0
261 2471 0
788 2471 0
261 -262 787 788 -2472 0
-261 262 787 -788 -2472 0
-261 -262 2472 0
-261 788 2472 0
261 262 2472 0
261 -788 2472 0
-787 2472 0
-2469 2470 2471 -2472 -2473 0
-2469 -2470 -2471 -2472 -2473 0
-2470 2471 2473 0
2470 -2471 2473 0
2469 2473 0
2472 2473 0
2469 -2470 2471 2472 -2474 0
-2469 2470 2471 -2472 -2474 0
-2469 -2470 2474 0
-2469 2472 2474 0
2469 2470 2474 0
2469 -2472 2474 0
-2471 2474 0
-783 784 799 -800 -2475 0
-783 -784 -799 -800 -2475 0
-784 799 2475 0
784 -799 2475 0
783 2475 0
800 2475 0
783 -784 799 800 -2476 0
-783 784 799 -800 -2476 0
-783 -784 2476 0
-783 800 2476 0
783 784 2476 0
783 -800 2476 0
-799 2476 0
-805 806 2397 -2398 -2477 0
-805 -806 -2397 -2398 -2477 0
-806 2397 2477 0
806 -2397 2477 0
805 2477 0
2398 2477 0
805 -806 2397 2398 -2478 0
-805 806 2397 -2398 -2478 0
-805 -806 2478 0
-805 2398 2478 0
805 806 2478 0
805 -2398 2478 0
-2397 2478 0
-2475 2476 2477 -2478 -2479 0
-2475 -2476 -2477 -2478 -2479 0
-2476 2477 2479 0
2476 -2477 2479 0
2475 2479 0
2478 2479 0
2475 -2476 2477 2478 -2480 0
-2475 2476 2477 -2478 -2480 0
-2475 -2476 2480 0
-2475 2478 2480 0
2475 2476 2480 0
2475 -2478 2480 0
-2477 2480 0
-37 38 257 -258 -2481 0
-37 -38 -257 -258 -2481 0
-38 257 2481 0
38 -257 2481 0
37 2481 0
258 2481 0
37 -38 257 258 -2482 0
-37 38 257 -258 -2482 0
-37 -38 2482 0
-37 258 2482 0
37 38 2482 0
37 -258 2482 0
-257 2482 0
-261 262 787 -788 -2483 0
-261 -262 -787 -788 -2483 0
-262 787 2483 0
262 -787 2483 0
261 2483 0
788 2483 0
261 -262 787 788 -2484 0
-261 262 787 -788 -2484 0
-261 -262 2484 0
-261 788 2484 0
261 262 2484 0
261 -788 2484 0
-787 2484 0
-2481 2482 2483 -2484 -2485 0
-2481 -2482 -2483 -2484 -2485 0
-2482 2483 2485 0
2482 -2483 2485 0
2481 2485 0
2484 2485 0
2481 -2482 2483 2484 -2486 0
-2481 2482 2483 -2484 -2486 0
-2481 -2482 2486 0
-2481 2484 2486 0
2481 2482 2486 0
2481 -2484 2486 0
-2483 2486 0
-627 628 799 -800 -2487 0
-627 -628 -799 -800 -2487 0
-628 799 2487 0
628 -799 2487 0
627 2487 0
800 2487 0
627 -628 799 800 -2488 0
-627 628 799 -800 -2488 0
-627 -628 2488 0
-627 800 2488 0
627 628 2488 0
627 -800 2488 0
-799 2488 0
-805 806 2397 -2398 -2489 0
-805 -806 -2397 -2398 -2489 0
-806 2397 2489 0
806 -2397 2489 0
805 2489 0
2398 2489 0
805 -806 2397 2398 -2490 0
-805 806 2397 -2398 -2490 0
-805 -806 2490 0
-805 2398 2490 0
805 806 2490 0
805 -2398 2490 0
-2397 2490 0
-2487 2488 2489 -2490 -2491 0
-2487 -2488 -2489 -2490 -2491 0
-2488 2489 2491 0
2488 -2489 2491 0
2487 2491 0
2490 2491 0
2487 -2488 2489 2490 -2492 0
-2487 2488 2489 -2490 -2492 0
-2487 -2488 2492 0
-2487 2490 2492 0
2487 2488 2492 0
2487 -2490 2492 0
-2489 2492 0
-2485 2486 2491 -2492 -2493 0
-2485 -2486 -2491 -2492 -2493 0
-2486 2491 2493 0
2486 -2491 2493 0
2485 2493 0
2492 2493 0
2485 -2486 2491 2492 -2494 0
-2485 2486 2491 -2492 -2494 0
-2485 -2486 2494 0
-2485 2492 2494 0
2485 2486 2494 0
2485 -2492 2494 0
-2491 2494 0
-199 200 231 -232 -2495 0
-199 -200 -231 -232 -2495 0
-200 231 2495 0
200 -231 2495 0
199 2495 0
232 2495 0
199 -200 231 232 -2496 0
-199 200 231 -232 -2496 0
-199 -200 2496 0
-199 232 2496 0
199 200 2496 0
199 -232 2496 0
-231 2496 0
-261 262 787 -788 -2497 0
-261 -262 -787 -788 -2497 0
-262 787 2497 0
262 -787 2497 0
261 2497 0
788 2497 0
261 -262 787 788 -2498 0
-261 262 787 -788 -2498 0
-261 -262 2498 0
-261 788 2498 0
261 262 2498 0
261 -788 2498 0
-787 2498 0
-2495 2496 2497 -2498 -2499 0
-2495 -2496 -2497 -2498 -2499 0
-2496 2497 2499 0
2496 -2497 2499 0
2495 2499 0
2498 2499 0
2495 -2496 2497 2498 -2500 0
-2495 2496 2497 -2498 -2500 0
-2495 -2496 2500 0
-2495 2498 2500 0
2495 2496 2500 0
2495 -2498 2500 0
-2497 2500 0
-783 784 799 -800 -2501 0
-783 -784 -799 -800 -2501 0
-784 799 2501 0
784 -799 2501 0
783 2501 0
800 2501 0
783 -784 799 800 -2502 0
-783 784 799 -800 -2502 0
-783 -784 2502 0
-783 800 2502 0
783 784 2502 0
783 -800 2502 0
-799 2502 0
-2397 2398 2501 -2502 -2503 0
-2397 -2398 -2501 -2502 -2503 0
-2398 2501 2503 0
2398 -2501 2503 0
2397 2503 0
2502 2503 0
2397 -2398 2501 2502 -2504 0
-2397 2398 2501 -2502 -2504 0
-2397 -2398 2504 0
-2397 2502 2504 0
2397 2398 2504 0
2397 -2502 2504 0
-2501 2504 0
-2499 2500 2503 -2504 -2505 0
-2499 -2500 -2503 -2504 -2505 0
-2500 2503 2505 0
2500 -2503 2505 0
2499 2505 0
2504 2505 0
2499 -2500 2503 2504 -2506 0
-2499 2500 2503 -2504 -2506 0
-2499 -2500 2506 0
-2499 2504 2506 0
2499 2500 2506 0
2499 -2504 2506 0
-2503 2506 0
-199 200 231 -232 -2507 0
-199 -200 -231 -232 -2507 0
-200 231 2507 0
200 -231 2507 0
199 2507 0
232 2507 0
199 -200 231 232 -2508 0
-199 200 231 -232 -2508 0
-199 -200 2508 0
-199 232 2508 0
199 200 2508 0
199 -232 2508 0
-231 2508 0
-261 262 787 -788 -2509 0
-261 -262 -787 -788 -2509 0
-262 787 2509 0
262 -787 2509 0
261 2509 0
788 2509 0
261 -262 787 788 -2510 0
-261 262 787 -788 -2510 0
-261 -262 2510 0
-261 788 2510 0
261 262 2510 0
261 -788 2510 0
-787 2510 0
-2507 2508 2509 -2510 -2511 0
-2507 -2508 -2509 -2510 -2511 0
-2508 2509 2511 0
2508 -2509 2511 0
2507 2511 0
2510 2511 0
2507 -2508 2509 2510 -2512 0
-2507 2508 2509 -2510 -2512 0
-2507 -2508 2512 0
-2507 2510 2512 0
2507 2508 2512 0
2507 -2510 2512 0
-2509 2512 0
-627 628 799 -800 -2513 0
-627 -628 -799 -800 -2513 0
-628 799 2513 0
628 -799 2513 0
627 2513 0
800 2513 0
627 -628 799 800 -2514 0
-627 628 799 -800 -2514 0
-627 -628 2514 0
-627 800 2514 0
627 628 2514 0
627 -800 2514 0
-799 2514 0
-2397 2398 2513 -2514 -2515 0
-2397 -2398 -2513 -2514 -2515 0
-2398 2513 2515 0
2398 -2513 2515 0
2397 2515 0
2514 2515 0
2397 -2398 2513 2514 -2516 0
-2397 2398 2513 -2514 -2516 0
-2397 -2398 2516 0
-2397 2514 2516 0
2397 2398 2516 0
2397 -2514 2516 0
-2513 2516 0
-37 38 199 -200 -2517 0
-37 -38 -199 -200 -2517 0
-38 199 2517 0
38 -199 2517 0
37 2517 0
200 2517 0
37 -38 199 200 -2518 0
-37 38 199 -200 -2518 0
-37 -38 2518 0
-37 200 2518 0
37 38 2518 0
37 -200 2518 0
-199 2518 0
-261 262 787 -788 -2519 0
-261 -262 -787 -788 -2519 0
-262 787 2519 0
262 -787 2519 0
261 2519 0
788 2519 0
261 -262 787 788 -2520 0
-261 262 787 -788 -2520 0
-261 -262 2520 0
-261 788 2520 0
261 262 2520 0
261 -788 2520 0
-787 2520 0
-2517 2518 2519 -2520 -2521 0
-2517 -2518 -2519 -2520 -2521 0
-2518 2519 2521 0
2518 -2519 2521 0
2517 2521 0
2520 2521 0
2517 -2518 2519 2520 -2522 0
-2517 2518 2519 -2520 -2522 0
-2517 -2518 2522 0
-2517 2520 2522 0
2517 2518 2522 0
2517 -2520 2522 0
-2519 2522 0
-783 784 799 -800 -2523 0
-783 -784 -799 -800 -2523 0
-784 799 2523 0
784 -799 2523 0
783 2523 0
800 2523 0
783 -784 799 800 -2524 0
-783 784 799 -800 -2524 0
-783 -784 2524 0
-783 800 2524 0
783 784 2524 0
783 -800 2524 0
-799 2524 0
-2397 2398 2523 -2524 -2525 0
-2397 -2398 -2523 -2524 -2525 0
-2398 2523 2525 0
2398 -2523 2525 0
2397 2525 0
2524 2525 0
2397 -2398 2523 2524 -2526 0
-2397 2398 2523 -2524 -2526 0
-2397 -2398 2526 0
-2397 2524 2526 0
2397 2398 2526 0
2397 -2524 2526 0
-2523 2526 0
-2521 2522 2525 -2526 -2527 0
-2521 -2522 -2525 -2526 -2527 0
-2522 2525 2527 0
2522 -2525 2527 0
2521 2527 0
2526 2527 0
2521 -2522 2525 2526 -2528 0
-2521 2522 2525 -2526 -2528 0
-2521 -2522 2528 0
-2521 2526 2528 0
2521 2522 2528 0
2521 -2526 2528 0
-2525 2528 0
-37 38 199 -200 -2529 0
-37 -38 -199 -200 -2529 0
-38 199 2529 0
38 -199 2529 0
37 2529 0
200 2529 0
37 -38 199 200 -2530 0
-37 38 199 -200 -2530 0
-37 -38 2530 0
-37 200 2530 0
37 38 2530 0
37 -200 2530 0
-199 2530 0
-261 262 787 -788 -2531 0
-261 -262 -787 -788 -2531 0
-262 787 2531 0
262 -787 2531 0
261 2531 0
788 2531 0
261 -262 787 788 -2532 0
-261 262 787 -788 -2532 0
-261 -262 2532 0
-261 788 2532 0
261 262 2532 0
261 -788 2532 0
-787 2532 0
-2529 2530 2531 -2532 -2533 0
-2529 -2530 -2531 -2532 -2533 0
-2530 2531 2533 0
2530 -2531 2533 0
2529 2533 0
2532 2533 0
2529 -2530 2531 2532 -2534 0
-2529 2530 2531 -2532 -2534 0
-2529 -2530 2534 0
-2529 2532 2534 0
2529 2530 2534 0
2529 -2532 2534 0
-2531 2534 0
-627 628 799 -800 -2535 0
-627 -628 -799 -800 -2535 0
-628 799 2535 0
628 -799 2535 0
627 2535 0
800 2535 0
627 -628 799 800 -2536 0
-627 628 799 -800 -2536 0
-627 -628 2536 0
-627 800 2536 0
627 628 2536 0
627 -800 2536 0
-799 2536 0
-2397 2398 2535 -2536 -2537 0
-2397 -2398 -2535 -2536 -2537 0
-2398 2535 2537 0
2398 -2535 2537 0
2397 2537 0
2536 2537 0
2397 -2398 2535 2536 -2538 0
-2397 2398 2535 -2536 -2538 0
-2397 -2398 2538 0
-2397 2536 2538 0
2397 2398 2538 0
2397 -2536 2538 0
-2535 2538 0
-2533 2534 2537 -2538 -2539 0
-2533 -2534 -2537 -2538 -2539 0
-2534 2537 2539 0
2534 -2537 2539 0
2533 2539 0
2538 2539 0
2533 -2534 2537 2538 -2540 0
-2533 2534 2537 -2538 -2540 0
-2533 -2534 2540 0
-2533 2538 2540 0
2533 2534 2540 0
2533 -2538 2540 0
-2537 2540 0
-197 198 257 -258 -2541 0
-197 -198 -257 -258 -2541 0
-198 257 2541 0
198 -257 2541 0
197 2541 0
258 2541 0
197 -198 257 258 -2542 0
-197 198 257 -258 -2542 0
-197 -198 2542 0
-197 258 2542 0
197 198 2542 0
197 -258 2542 0
-257 2542 0
-261 262 787 -788 -2543 0
-261 -262 -787 -788 -2543 0
-262 787 2543 0
262 -787 2543 0
261 2543 0
788 2543 0
261 -262 787 788 -2544 0
-261 262 787 -788 -2544 0
-261 -262 2544 0
-261 788 2544 0
261 262 2544 0
261 -788 2544 0
-787 2544 0
-2541 2542 2543 -2544 -2545 0
-2541 -2542 -2543 -2544 -2545 0
-2542 2543 2545 0
2542 -2543 2545 0
2541 2545 0
2544 2545 0
2541 -2542 2543 2544 -2546 0
-2541 2542 2543 -2544 -2546 0
-2541 -2542 2546 0
-2541 2544 2546 0
2541 2542 2546 0
2541 -2544 2546 0
-2543 2546 0
-783 784 799 -800 -2547 0
-783 -784 -799 -800 -2547 0
-784 799 2547 0
784 -799 2547 0
783 2547 0
800 2547 0
783 -784 799 800 -2548 0
-783 784 799 -800 -2548 0
-783 -784 2548 0
-783 800 2548 0
783 784 2548 0
783 -800 2548 0
-799 2548 0
-805 806 2547 -2548 -2549 0
-805 -806 -2547 -2548 -2549 0
-806 2547 2549 0
806 -2547 2549 0
805 2549 0
2548 2549 0
805 -806 2547 2548 -2550 0
-805 806 2547 -2548 -2550 0
-805 -806 2550 0
-805 2548 2550 0
805 806 2550 0
805 -2548 2550 0
-2547 2550 0
-197 198 257 -258 -2551 0
-197 -198 -257 -258 -2551 0
-198 257 2551 0
198 -257 2551 0
197 2551 0
258 2551 0
197 -198 257 258 -2552 0
-197 198 257 -258 -2552 0
-197 -198 2552 0
-197 258 2552 0
197 198 2552 0
197 -258 2552 0
-257 2552 0
-261 262 787 -788 -2553 0
-261 -262 -787 -788 -2553 0
-262 787 2553 0
262 -787 2553 0
261 2553 0
788 2553 0
261 -262 787 788 -2554 0
-261 262 787 -788 -2554 0
-261 -262 2554 0
-261 788 2554 0
261 262 2554 0
261 -788 2554 0
-787 2554 0
-2551 2552 2553 -2554 -2555 0
-2551 -2552 -2553 -2554 -2555 0
-2552 2553 2555 0
2552 -2553 2555 0
2551 2555 0
2554 2555 0
2551 -2552 2553 2554 -2556 0
-2551 2552 2553 -2554 -2556 0
-2551 -2552 2556 0
-2551 2554 2556 0
2551 2552 2556 0
2551 -2554 2556 0
-2553 2556 0
-627 628 799 -800 -2557 0
-627 -628 -799 -800 -2557 0
-628 799 2557 0
628 -799 2557 0
627 2557 0
800 2557 0
627 -628 799 800 -2558 0
-627 628 799 -800 -2558 0
-627 -628 2558 0
-627 800 2558 0
627 628 2558 0
627 -800 2558 0
-799 2558 0
-805 806 2557 -2558 -2559 0
-805 -806 -2557 -2558 -2559 0
-806 2557 2559 0
806 -2557 2559 0
805 2559 0
2558 2559 0
805 -806 2557 2558 -2560 0
-805 806 2557 -2558 -2560 0
-805 -806 2560 0
-805 2558 2560 0
805 806 2560 0
805 -2558 2560 0
-2557 2560 0
-2555 2556 2559 -2560 -2561 0
-2555 -2556 -2559 -2560 -2561 0
-2556 2559 2561 0
2556 -2559 2561 0
2555 2561 0
2560 2561 0
2555 -2556 2559 2560 -2562 0
-2555 2556 2559 -2560 -2562 0
-2555 -2556 2562 0
-2555 2560 2562 0
2555 2556 2562 0
2555 -2560 2562 0
-2559 2562 0
-257 258 261 -262 -2563 0
-257 -258 -261 -262 -2563 0
-258 261 2563 0
258 -261 2563 0
257 2563 0
262 2563 0
257 -258 261 262 -2564 0
-257 258 261 -262 -2564 0
-257 -258 2564 0
-257 262 2564 0
257 258 2564 0
257 -262 2564 0
-261 2564 0
-787 788 2563 -2564 -2565 0
-787 -788 -2563 -2564 -2565 0
-788 2563 2565 0
788 -2563 2565 0
787 2565 0
2564 2565 0
787 -788 2563 2564 -2566 0
-787 788 2563 -2564 -2566 0
-787 -788 2566 0
-787 2564 2566 0
787 788 2566 0
787 -2564 2566 0
-2563 2566 0
-1467 1468 799 -800 -2567 0
-1467 -1468 -799 -800 -2567 0
-1468 799 2567 0
1468 -799 2567 0
1467 2567 0
800 2567 0
1467 -1468 799 800 -2568 0
-1467 1468 799 -800 -2568 0
-1467 -1468 2568 0
-1467 800 2568 0
1467 1468 2568 0
1467 -800 2568 0
-799 2568 0
-805 806 2567 -2568 -2569 0
-805 -806 -2567 -2568 -2569 0
-806 2567 2569 0
806 -2567 2569 0
805 2569 0
2568 2569 0
805 -806 2567 2568 -2570 0
-805 806 2567 -2568 -2570 0
-805 -806 2570 0
-805 2568 2570 0
805 806 2570 0
805 -2568 2570 0
-2567 2570 0
-2565 2566 2569 -2570 -2571 0
-2565 -2566 -2569 -2570 -2571 0
-2566 2569 2571 0
2566 -2569 2571 0
2565 2571 0
2570 2571 0
2565 -2566 2569 2570 -2572 0
-2565 2566 2569 -2570 -2572 0
-2565 -2566 2572 0
-2565 2570 2572 0
2565 2566 2572 0
2565 -2570 2572 0
-2569 2572 0
-257 258 261 -262 -2573 0
-257 -258 -261 -262 -2573 0
-258 261 2573 0
258 -261 2573 0
257 2573 0
262 2573 0
257 -258 261 262 -2574 0
-257 258 261 -262 -2574 0
-257 -258 2574 0
-257 262 2574 0
257 258 2574 0
257 -262 2574 0
-261 2574 0
-787 788 2573 -2574 -2575 0
-787 -788 -2573 -2574 -2575 0
-788 2573 2575 0
788 -2573 2575 0
787 2575 0
2574 2575 0
787 -788 2573 2574 -2576 0
-787 788 2573 -2574 -2576 0
-787 -788 2576 0
-787 2574 2576 0
787 788 2576 0
787 -2574 2576 0
-2573 2576 0
-1469 1470 799 -800 -2577 0
-1469 -1470 -799 -800 -2577 0
-1470 799 2577 0
1470 -799 2577 0
1469 2577 0
800 2577 0
1469 -1470 799 800 -2578 0
-1469 1470 799 -800 -2578 0
-1469 -1470 2578 0
-1469 800 2578 0
1469 1470 2578 0
1469 -800 2578 0
-799 2578 0
-805 806 2577 -2578 -2579 0
-805 -806 -2577 -2578 -2579 0
-806 2577 2579 0
806 -2577 2579 0
805 2579 0
2578 2579 0
805 -806 2577 2578 -2580 0
-805 806 2577 -2578 -2580 0
-805 -806 2580 0
-805 2578 2580 0
805 806 2580 0
805 -2578 2580 0
-2577 2580 0
-205 206 257 -258 -2581 0
-205 -206 -257 -258 -2581 0
-206 257 2581 0
206 -257 2581 0
205 2581 0
258 2581 0
205 -206 257 258 -2582 0
-205 206 257 -258 -2582 0
-205 -206 2582 0
-205 258 2582 0
205 206 2582 0
205 -258 2582 0
-257 2582 0
-261 262 2581 -2582 -2583 0
-261 -262 -2581 -2582 -2583 0
-262 2581 2583 0
262 -2581 2583 0
261 2583 0
2582 2583 0
261 -262 2581 2582 -2584 0
-261 262 2581 -2582 -2584 0
-261 -262 2584 0
-261 2582 2584 0
261 262 2584 0
261 -2582 2584 0
-2581 2584 0
-787 788 799 -800 -2585 0
-787 -788 -799 -800 -2585 0
-788 799 2585 0
788 -799 2585 0
787 2585 0
800 2585 0
787 -788 799 800 -2586 0
-787 788 799 -800 -2586 0
-787 -788 2586 0
-787 800 2586 0
787 788 2586 0
787 -800 2586 0
-799 2586 0
-805 806 2585 -2586 -2587 0
-805 -806 -2585 -2586 -2587 0
-806 2585 2587 0
806 -2585 2587 0
805 2587 0
2586 2587 0
805 -806 2585 2586 -2588 0
-805 806 2585 -2586 -2588 0
-805 -806 2588 0
-805 2586 2588 0
805 806 2588 0
805 -2586 2588 0
-2585 2588 0
-2583 2584 2587 -2588 -2589 0
-2583 -2584 -2587 -2588 -2589 0
-2584 2587 2589 0
2584 -2587 2589 0
2583 2589 0
2588 2589 0
2583 -2584 2587 2588 -2590 0
-2583 2584 2587 -2588 -2590 0
-2583 -2584 2590 0
-2583 2588 2590 0
2583 2584 2590 0
2583 -2588 2590 0
-2587 2590 0
-197 198 199 -200 -2591 0
-197 -198 -199 -200 -2591 0
-198 199 2591 0
198 -199 2591 0
197 2591 0
200 2591 0
197 -198 199 200 -2592 0
-197 198 199 -200 -2592 0
-197 -198 2592 0
-197 200 2592 0
197 198 2592 0
197 -200 2592 0
-199 2592 0
-261 262 2591 -2592 -2593 0
-261 -262 -2591 -2592 -2593 0
-262 2591 2593 0
262 -2591 2593 0
261 2593 0
2592 2593 0
261 -262 2591 2592 -2594 0
-261 262 2591 -2592 -2594 0
-261 -262 2594 0
-261 2592 2594 0
261 262 2594 0
261 -2592 2594 0
-2591 2594 0
-787 788 783 -784 -2595 0
-787 -788 -783 -784 -2595 0
-788 783 2595 0
788 -783 2595 0
787 2595 0
784 2595 0
787 -788 783 784 -2596 0
-787 788 783 -784 -2596 0
-787 -788 2596 0
-787 784 2596 0
787 788 2596 0
787 -784 2596 0
-783 2596 0
-799 800 2595 -2596 -2597 0
-799 -800 -2595 -2596 -2597 0
-800 2595 2597 0
800 -2595 2597 0
799 2597 0
2596 2597 0
799 -800 2595 2596 -2598 0
-799 800 2595 -2596 -2598 0
-799 -800 2598 0
-799 2596 2598 0
799 800 2598 0
799 -2596 2598 0
-2595 2598 0
-2593 2594 2597 -2598 -2599 0
-2593 -2594 -2597 -2598 -2599 0
-2594 2597 2599 0
2594 -2597 2599 0
2593 2599 0
2598 2599 0
2593 -2594 2597 2598 -2600 0
-2593 2594 2597 -2598 -2600 0
-2593 -2594 2600 0
-2593 2598 2600 0
2593 2594 2600 0
2593 -2598 2600 0
-2597 2600 0
-197 198 199 -200 -2601 0
-197 -198 -199 -200 -2601 0
-198 199 2601 0
198 -199 2601 0
197 2601 0
200 2601 0
197 -198 199 200 -2602 0
-197 198 199 -200 -2602 0
-197 -198 2602 0
-197 200 2602 0
197 198 2602 0
197 -200 2602 0
-199 2602 0
-261 262 2601 -2602 -2603 0
-261 -262 -2601 -2602 -2603 0
-262 2601 2603 0
262 -2601 2603 0
261 2603 0
2602 2603 0
261 -262 2601 2602 -2604 0
-261 262 2601 -2602 -2604 0
-261 -262 2604 0
-261 2602 2604 0
261 262 2604 0
261 -2602 2604 0
-2601 2604 0
-787 788 627 -628 -2605 0
-787 -788 -627 -628 -2605 0
-788 627 2605 0
788 -627 2605 0
787 2605 0
628 2605 0
787 -788 627 628 -2606 0
-787 788 627 -628 -2606 0
-787 -788 2606 0
-787 628 2606 0
787 788 2606 0
787 -628 2606 0
-627 2606 0
-799 800 2605 -2606 -2607 0
-799 -800 -2605 -2606 -2607 0
-800 2605 2607 0
800 -2605 2607 0
799 2607 0
2606 2607 0
799 -800 2605 2606 -2608 0
-799 800 2605 -2606 -2608 0
-799 -800 2608 0
-799 2606 2608 0
799 800 2608 0
799 -2606 2608 0
-2605 2608 0
-199 200 261 -262 -2609 0
-199 -200 -261 -262 -2609 0
-200 261 2609 0
200 -261 2609 0
199 2609 0
262 2609 0
199 -200 261 262 -2610 0
-199 200 261 -262 -2610 0
-199 -200 2610 0
-199 262 2610 0
199 200 2610 0
199 -262 2610 0
-261 2610 0
-787 788 2609 -2610 -2611 0
-787 -788 -2609 -2610 -2611 0
-788 2609 2611 0
788 -2609 2611 0
787 2611 0
2610 2611 0
787 -788 2609 2610 -2612 0
-787 788 2609 -2610 -2612 0
-787 -788 2612 0
-787 2610 2612 0
787 788 2612 0
787 -2610 2612 0
-2609 2612 0
-1467 1468 799 -800 -2613 0
-1467 -1468 -799 -800 -2613 0
-1468 799 2613 0
1468 -799 2613 0
1467 2613 0
800 2613 0
1467 -1468 799 800 -2614 0
-1467 1468 799 -800 -2614 0
-1467 -1468 2614 0
-1467 800 2614 0
1467 1468 2614 0
1467 -800 2614 0
-799 2614 0
-2611 2612 2613 -2614 -2615 0
-2611 -2612 -2613 -2614 -2615 0
-2612 2613 2615 0
2612 -2613 2615 0
2611 2615 0
2614 2615 0
2611 -2612 2613 2614 -2616 0
-2611 2612 2613 -2614 -2616 0
-2611 -2612 2616 0
-2611 2614 2616 0
2611 2612 2616 0
2611 -2614 2616 0
-2613 2616 0
-199 200 261 -262 -2617 0
-199 -200 -261 -262 -2617 0
-200 261 2617 0
200 -261 2617 0
199 2617 0
262 2617 0
199 -200 261 262 -2618 0
-199 200 261 -262 -2618 0
-199 -200 2618 0
-199 262 2618 0
199 200 2618 0
199 -262 2618 0
-261 2618 0
-787 788 2617 -2618 -2619 0
-787 -788 -2617 -2618 -2619 0
-788 2617 2619 0
788 -2617 2619 0
787 2619 0
2618 2619 0
787 -788 2617 2618 -2620 0
-787 788 2617 -2618 -2620 0
-787 -788 2620 0
-787 2618 2620 0
787 788 2620 0
787 -2618 2620 0
-2617 2620 0
-1469 1470 799 -800 -2621 0
-1469 -1470 -799 -800 -2621 0
-1470 799 2621 0
1470 -799 2621 0
1469 2621 0
800 2621 0
1469 -1470 799 800 -2622 0
-1469 1470 799 -800 -2622 0
-1469 -1470 2622 0
-1469 800 2622 0
1469 1470 2622 0
1469 -800 2622 0
-799 2622 0
-2619 2620 2621 -2622 -2623 0
-2619 -2620 -2621 -2622 -2623 0
-2620 2621 2623 0
2620 -2621 2623 0
2619 2623 0
2622 2623 0
2619 -2620 2621 2622 -2624 0
-2619 2620 2621 -2622 -2624 0
-2619 -2620 2624 0
-2619 2622 2624 0
2619 2620 2624 0
2619 -2622 2624 0
-2621 2624 0
-199 200 205 -206 -2625 0
-199 -200 -205 -206 -2625 0
-200 205 2625 0
200 -205 2625 0
199 2625 0
206 2625 0
199 -200 205 206 -2626 0
-199 200 205 -206 -2626 0
-199 -200 2626 0
-199 206 2626 0
199 200 2626 0
199 -206 2626 0
-205 2626 0
-261 262 2625 -2626 -2627 0
-261 -262 -2625 -2626 -2627 0
-262 2625 2627 0
262 -2625 2627 0
261 2627 0
2626 2627 0
261 -262 2625 2626 -2628 0
-261 262 2625 -2626 -2628 0
-261 -262 2628 0
-261 2626 2628 0
261 262 2628 0
261 -2626 2628 0
-2625 2628 0
-787 788 799 -800 -2629 0
-787 -788 -799 -800 -2629 0
-788 799 2629 0
788 -799 2629 0
787 2629 0
800 2629 0
787 -788 799 800 -2630 0
-787 788 799 -800 -2630 0
-787 -788 2630 0
-787 800 2630 0
787 788 2630 0
787 -800 2630 0
-799 2630 0
-261 262 787 -788 -2631 0
-261 -262 -787 -788 -2631 0
-262 787 2631 0
262 -787 2631 0
261 2631 0
788 2631 0
261 -262 787 788 -2632 0
-261 262 787 -788 -2632 0
-261 -262 2632 0
-261 788 2632 0
261 262 2632 0
261 -788 2632 0
-787 2632 0
-1667 1668 799 -800 -2633 0
-1667 -1668 -799 -800 -2633 0
-1668 799 2633 0
1668 -799 2633 0
1667 2633 0
800 2633 0
1667 -1668 799 800 -2634 0
-1667 1668 799 -800 -2634 0
-1667 -1668 2634 0
-1667 800 2634 0
1667 1668 2634 0
1667 -800 2634 0
-799 2634 0
-2631 2632 2633 -2634 -2635 0
-2631 -2632 -2633 -2634 -2635 0
-2632 2633 2635 0
2632 -2633 2635 0
2631 2635 0
2634 2635 0
2631 -2632 2633 2634 -2636 0
-2631 2632 2633 -2634 -2636 0
-2631 -2632 2636 0
-2631 2634 2636 0
2631 2632 2636 0
2631 -2634 2636 0
-2633 2636 0
-261 262 787 -788 -2637 0
-261 -262 -787 -788 -2637 0
-262 787 2637 0
262 -787 2637 0
261 2637 0
788 2637 0
261 -262 787 788 -2638 0
-261 262 787 -788 -2638 0
-261 -262 2638 0
-261 788 2638 0
261 262 2638 0
261 -788 2638 0
-787 2638 0
-1667 1668 805 -806 -2639 0
-1667 -1668 -805 -806 -2639 0
-1668 805 2639 0
1668 -805 2639 0
1667 2639 0
806 2639 0
1667 -1668 805 806 -2640 0
-1667 1668 805 -806 -2640 0
-1667 -1668 2640 0
-1667 806 2640 0
1667 1668 2640 0
1667 -806 2640 0
-805 2640 0
-2637 2638 2639 -2640 -2641 0
-2637 -2638 -2639 -2640 -2641 0
-2638 2639 2641 0
2638 -2639 2641 0
2637 2641 0
2640 2641 0
2637 -2638 2639 2640 -2642 0
-2637 2638 2639 -2640 -2642 0
-2637 -2638 2642 0
-2637 2640 2642 0
2637 2638 2642 0
2637 -2640 2642 0
-2639 2642 0
-261 262 787 -788 -2643 0
-261 -262 -787 -788 -2643 0
-262 787 2643 0
262 -787 2643 0
261 2643 0
788 2643 0
261 -262 787 788 -2644 0
-261 262 787 -788 -2644 0
-261 -262 2644 0
-261 788 2644 0
261 262 2644 0
261 -788 2644 0
-787 2644 0
-1667 1668 783 -784 -2645 0
-1667 -1668 -783 -784 -2645 0
-1668 783 2645 0
1668 -783 2645 0
1667 2645 0
784 2645 0
1667 -1668 783 784 -2646 0
-1667 1668 783 -784 -2646 0
-1667 -1668 2646 0
-1667 784 2646 0
1667 1668 2646 0
1667 -784 2646 0
-783 2646 0
-261 262 787 -788 -2647 0
-261 -262 -787 -788 -2647 0
-262 787 2647 0
262 -787 2647 0
261 2647 0
788 2647 0
261 -262 787 788 -2648 0
-261 262 787 -788 -2648 0
-261 -262 2648 0
-261 788 2648 0
261 262 2648 0
261 -788 2648 0
-787 2648 0
-1667 1668 627 -628 -2649 0
-1667 -1668 -627 -628 -2649 0
-1668 627 2649 0
1668 -627 2649 0
1667 2649 0
628 2649 0
1667 -1668 627 628 -2650 0
-1667 1668 627 -628 -2650 0
-1667 -1668 2650 0
-1667 628 2650 0
1667 1668 2650 0
1667 -628 2650 0
-627 2650 0
-199 200 261 -262 -2651 0
-199 -200 -261 -262 -2651 0
-200 261 2651 0
200 -261 2651 0
199 2651 0
262 2651 0
199 -200 261 262 -2652 0
-199 200 261 -262 -2652 0
-199 -200 2652 0
-199 262 2652 0
199 200 2652 0
199 -262 2652 0
-261 2652 0
-787 788 805 -806 -2653 0
-787 -788 -805 -806 -2653 0
-788 805 2653 0
788 -805 2653 0
787 2653 0
806 2653 0
787 -788 805 806 -2654 0
-787 788 805 -806 -2654 0
-787 -788 2654 0
-787 806 2654 0
787 788 2654 0
787 -806 2654 0
-805 2654 0
-129 130 133 -134 -2655 0
-129 -130 -133 -134 -2655 0
-130 133 2655 0
130 -133 2655 0
129 2655 0
134 2655 0
129 -130 133 134 -2656 0
-129 130 133 -134 -2656 0
-129 -130 2656 0
-129 134 2656 0
129 130 2656 0
129 -134 2656 0
-133 2656 0
-257 258 2655 -2656 -2657 0
-257 -258 -2655 -2656 -2657 0
-258 2655 2657 0
258 -2655 2657 0
257 2657 0
2656 2657 0
257 -258 2655 2656 -2658 0
-257 258 2655 -2656 -2658 0
-257 -258 2658 0
-257 2656 2658 0
257 258 2658 0
257 -2656 2658 0
-2655 2658 0
-1197 1198 1983 -1984 -2659 0
-1197 -1198 -1983 -1984 -2659 0
-1198 1983 2659 0
1198 -1983 2659 0
1197 2659 0
1984 2659 0
1197 -1198 1983 1984 -2660 0
-1197 1198 1983 -1984 -2660 0
-1197 -1198 2660 0
-1197 1984 2660 0
1197 1198 2660 0
1197 -1984 2660 0
-1983 2660 0
-129 130 133 -134 -2661 0
-129 -130 -133 -134 -2661 0
-130 133 2661 0
130 -133 2661 0
129 2661 0
134 2661 0
129 -130 133 134 -2662 0
-129 130 133 -134 -2662 0
-129 -130 2662 0
-129 134 2662 0
129 130 2662 0
129 -134 2662 0
-133 2662 0
-141 142 2661 -2662 -2663 0
-141 -142 -2661 -2662 -2663 0
-142 2661 2663 0
142 -2661 2663 0
141 2663 0
2662 2663 0
141 -142 2661 2662 -2664 0
-141 142 2661 -2662 -2664 0
-141 -142 2664 0
-141 2662 2664 0
141 142 2664 0
141 -2662 2664 0
-2661 2664 0
-257 258 1983 -1984 -2665 0
-257 -258 -1983 -1984 -2665 0
-258 1983 2665 0
258 -1983 2665 0
257 2665 0
1984 2665 0
257 -258 1983 1984 -2666 0
-257 258 1983 -1984 -2666 0
-257 -258 2666 0
-257 1984 2666 0
257 258 2666 0
257 -1984 2666 0
-1983 2666 0
-133 134 187 -188 -2667 0
-133 -134 -187 -188 -2667 0
-134 187 2667 0
134 -187 2667 0
133 2667 0
188 2667 0
133 -134 187 188 -2668 0
-133 134 187 -188 -2668 0
-133 -134 2668 0
-133 188 2668 0
133 134 2668 0
133 -188 2668 0
-187 2668 0
-257 258 1983 -1984 -2669 0
-257 -258 -1983 -1984 -2669 0
-258 1983 2669 0
258 -1983 2669 0
257 2669 0
1984 2669 0
257 -258 1983 1984 -2670 0
-257 258 1983 -1984 -2670 0
-257 -258 2670 0
-257 1984 2670 0
257 258 2670 0
257 -1984 2670 0
-1983 2670 0
-133 134 179 -180 -2671 0
-133 -134 -179 -180 -2671 0
-134 179 2671 0
134 -179 2671 0
133 2671 0
180 2671 0
133 -134 179 180 -2672 0
-133 134 179 -180 -2672 0
-133 -134 2672 0
-133 180 2672 0
133 134 2672 0
133 -180 2672 0
-179 2672 0
-257 258 1983 -1984 -2673 0
-257 -258 -1983 -1984 -2673 0
-258 1983 2673 0
258 -1983 2673 0
257 2673 0
1984 2673 0
257 -258 1983 1984 -2674 0
-257 258 1983 -1984 -2674 0
-257 -258 2674 0
-257 1984 2674 0
257 258 2674 0
257 -1984 2674 0
-1983 2674 0
-121 122 129 -130 -2675 0
-121 -122 -129 -130 -2675 0
-122 129 2675 0
122 -129 2675 0
121 2675 0
130 2675 0
121 -122 129 130 -2676 0
-121 122 129 -130 -2676 0
-121 -122 2676 0
-121 130 2676 0
121 122 2676 0
121 -130 2676 0
-129 2676 0
-1197 1198 1983 -1984 -2677 0
-1197 -1198 -1983 -1984 -2677 0
-1198 1983 2677 0
1198 -1983 2677 0
1197 2677 0
1984 2677 0
1197 -1198 1983 1984 -2678 0
-1197 1198 1983 -1984 -2678 0
-1197 -1198 2678 0
-1197 1984 2678 0
1197 1198 2678 0
1197 -1984 2678 0
-1983 2678 0
-121 122 129 -130 -2679 0
-121 -122 -129 -130 -2679 0
-122 129 2679 0
122 -129 2679 0
121 2679 0
130 2679 0
121 -122 129 130 -2680 0
-121 122 129 -130 -2680 0
-121 -122 2680 0
-121 130 2680 0
121 122 2680 0
121 -130 2680 0
-129 2680 0
-141 142 1983 -1984 -2681 0
-141 -142 -1983 -1984 -2681 0
-142 1983 2681 0
142 -1983 2681 0
141 2681 0
1984 2681 0
141 -142 1983 1984 -2682 0
-141 142 1983 -1984 -2682 0
-141 -142 2682 0
-141 1984 2682 0
141 142 2682 0
141 -1984 2682 0
-1983 2682 0
-121 122 187 -188 -2683 0
-121 -122 -187 -188 -2683 0
-122 187 2683 0
122 -187 2683 0
121 2683 0
188 2683 0
121 -122 187 188 -2684 0
-121 122 187 -188 -2684 0
-121 -122 2684 0
-121 188 2684 0
121 122 2684 0
121 -188 2684 0
-187 2684 0
-121 122 179 -180 -2685 0
-121 -122 -179 -180 -2685 0
-122 179 2685 0
122 -179 2685 0
121 2685 0
180 2685 0
121 -122 179 180 -2686 0
-121 122 179 -180 -2686 0
-121 -122 2686 0
-121 180 2686 0
121 122 2686 0
121 -180 2686 0
-179 2686 0
-67 68 89 -90 -2687 0
-67 -68 -89 -90 -2687 0
-68 89 2687 0
68 -89 2687 0
67 2687 0
90 2687 0
67 -68 89 90 -2688 0
-67 68 89 -90 -2688 0
-67 -68 2688 0
-67 90 2688 0
67 68 2688 0
67 -90 2688 0
-89 2688 0
-209 210 2687 -2688 -2689 0
-209 -210 -2687 -2688 -2689 0
-210 2687 2689 0
210 -2687 2689 0
209 2689 0
2688 2689 0
209 -210 2687 2688 -2690 0
-209 210 2687 -2688 -2690 0
-209 -210 2690 0
-209 2688 2690 0
209 210 2690 0
209 -2688 2690 0
-2687 2690 0
-1469 1470 1401 -1402 -2691 0
-1469 -1470 -1401 -1402 -2691 0
-1470 1401 2691 0
1470 -1401 2691 0
1469 2691 0
1402 2691 0
1469 -1470 1401 1402 -2692 0
-1469 1470 1401 -1402 -2692 0
-1469 -1470 2692 0
-1469 1402 2692 0
1469 1470 2692 0
1469 -1402 2692 0
-1401 2692 0
-67 68 89 -90 -2693 0
-67 -68 -89 -90 -2693 0
-68 89 2693 0
68 -89 2693 0
67 2693 0
90 2693 0
67 -68 89 90 -2694 0
-67 68 89 -90 -2694 0
-67 -68 2694 0
-67 90 2694 0
67 68 2694 0
67 -90 2694 0
-89 2694 0
-207 208 2693 -2694 -2695 0
-207 -208 -2693 -2694 -2695 0
-208 2693 2695 0
208 -2693 2695 0
207 2695 0
2694 2695 0
207 -208 2693 2694 -2696 0
-207 208 2693 -2694 -2696 0
-207 -208 2696 0
-207 2694 2696 0
207 208 2696 0
207 -2694 2696 0
-2693 2696 0
-209 210 1401 -1402 -2697 0
-209 -210 -1401 -1402 -2697 0
-210 1401 2697 0
210 -1401 2697 0
209 2697 0
1402 2697 0
209 -210 1401 1402 -2698 0
-209 210 1401 -1402 -2698 0
-209 -210 2698 0
-209 1402 2698 0
209 210 2698 0
209 -1402 2698 0
-1401 2698 0
-41 42 89 -90 -2699 0
-41 -42 -89 -90 -2699 0
-42 89 2699 0
42 -89 2699 0
41 2699 0
90 2699 0
41 -42 89 90 -2700 0
-41 42 89 -90 -2700 0
-41 -42 2700 0
-41 90 2700 0
41 42 2700 0
41 -90 2700 0
-89 2700 0
-209 210 2699 -2700 -2701 0
-209 -210 -2699 -2700 -2701 0
-210 2699 2701 0
210 -2699 2701 0
209 2701 0
2700 2701 0
209 -210 2699 2700 -2702 0
-209 210 2699 -2700 -2702 0
-209 -210 2702 0
-209 2700 2702 0
209 210 2702 0
209 -2700 2702 0
-2699 2702 0
-1469 1470 1401 -1402 -2703 0
-1469 -1470 -1401 -1402 -2703 0
-1470 1401 2703 0
1470 -1401 2703 0
1469 2703 0
1402 2703 0
1469 -1470 1401 1402 -2704 0
-1469 1470 1401 -1402 -2704 0
-1469 -1470 2704 0
-1469 1402 2704 0
1469 1470 2704 0
1469 -1402 2704 0
-1401 2704 0
-41 42 89 -90 -2705 0
-41 -42 -89 -90 -2705 0
-42 89 2705 0
42 -89 2705 0
41 2705 0
90 2705 0
41 -42 89 90 -2706 0
-41 42 89 -90 -2706 0
-41 -42 2706 0
-41 90 2706 0
41 42 2706 0
41 -90 2706 0
-89 2706 0
-207 208 2705 -2706 -2707 0
-207 -208 -2705 -2706 -2707 0
-208 2705 2707 0
208 -2705 2707 0
207 2707 0
2706 2707 0
207 -208 2705 2706 -2708 0
-207 208 2705 -2706 -2708 0
-207 -208 2708 0
-207 2706 2708 0
207 208 2708 0
207 -2706 2708 0
-2705 2708 0
-209 210 1401 -1402 -2709 0
-209 -210 -1401 -1402 -2709 0
-210 1401 2709 0
210 -1401 2709 0
209 2709 0
1402 2709 0
209 -210 1401 1402 -2710 0
-209 210 1401 -1402 -2710 0
-209 -210 2710 0
-209 1402 2710 0
209 210 2710 0
209 -1402 2710 0
-1401 2710 0
-67 68 89 -90 -2711 0
-67 -68 -89 -90 -2711 0
-68 89 2711 0
68 -89 2711 0
67 2711 0
90 2711 0
67 -68 89 90 -2712 0
-67 68 89 -90 -2712 0
-67 -68 2712 0
-67 90 2712 0
67 68 2712 0
67 -90 2712 0
-89 2712 0
-209 210 2711 -2712 -2713 0
-209 -210 -2711 -2712 -2713 0
-210 2711 2713 0
210 -2711 2713 0
209 2713 0
2712 2713 0
209 -210 2711 2712 -2714 0
-209 210 2711 -2712 -2714 0
-209 -210 2714 0
-209 2712 2714 0
209 210 2714 0
209 -2712 2714 0
-2711 2714 0
-1469 1470 1879 -1880 -2715 0
-1469 -1470 -1879 -1880 -2715 0
-1470 1879 2715 0
1470 -1879 2715 0
1469 2715 0
1880 2715 0
1469 -1470 1879 1880 -2716 0
-1469 1470 1879 -1880 -2716 0
-1469 -1470 2716 0
-1469 1880 2716 0
1469 1470 2716 0
1469 -1880 2716 0
-1879 2716 0
-67 68 89 -90 -2717 0
-67 -68 -89 -90 -2717 0
-68 89 2717 0
68 -89 2717 0
67 2717 0
90 2717 0
67 -68 89 90 -2718 0
-67 68 89 -90 -2718 0
-67 -68 2718 0
-67 90 2718 0
67 68 2718 0
67 -90 2718 0
-89 2718 0
-207 208 2717 -2718 -2719 0
-207 -208 -2717 -2718 -2719 0
-208 2717 2719 0
208 -2717 2719 0
207 2719 0
2718 2719 0
207 -208 2717 2718 -2720 0
-207 208 2717 -2718 -2720 0
-207 -208 2720 0
-207 2718 2720 0
207 208 2720 0
207 -2718 2720 0
-2717 2720 0
-209 210 1879 -1880 -2721 0
-209 -210 -1879 -1880 -2721 0
-210 1879 2721 0
210 -1879 2721 0
209 2721 0
1880 2721 0
209 -210 1879 1880 -2722 0
-209 210 1879 -1880 -2722 0
-209 -210 2722 0
-209 1880 2722 0
209 210 2722 0
209 -1880 2722 0
-1879 2722 0
-41 42 89 -90 -2723 0
-41 -42 -89 -90 -2723 0
-42 89 2723 0
42 -89 2723 0
41 2723 0
90 2723 0
41 -42 89 90 -2724 0
-41 42 89 -90 -2724 0
-41 -42 2724 0
-41 90 2724 0
41 42 2724 0
41 -90 2724 0
-89 2724 0
-41 42 89 -90 -2725 0
-41 -42 -89 -90 -2725 0
-42 89 2725 0
42 -89 2725 0
41 2725 0
90 2725 0
41 -42 89 90 -2726 0
-41 42 89 -90 -2726 0
-41 -42 2726 0
-41 90 2726 0
41 42 2726 0
41 -90 2726 0
-89 2726 0
-207 208 2725 -2726 -2727 0
-207 -208 -2725 -2726 -2727 0
-208 2725 2727 0
208 -2725 2727 0
207 2727 0
2726 2727 0
207 -208 2725 2726 -2728 0
-207 208 2725 -2726 -2728 0
-207 -208 2728 0
-207 2726 2728 0
207 208 2728 0
207 -2726 2728 0
-2725 2728 0
-209 210 1879 -1880 -2729 0
-209 -210 -1879 -1880 -2729 0
-210 1879 2729 0
210 -1879 2729 0
209 2729 0
1880 2729 0
209 -210 1879 1880 -2730 0
-209 210 1879 -1880 -2730 0
-209 -210 2730 0
-209 1880 2730 0
209 210 2730 0
209 -1880 2730 0
-1879 2730 0
-209 210 1469 -1470 -2731 0
-209 -210 -1469 -1470 -2731 0
-210 1469 2731 0
210 -1469 2731 0
209 2731 0
1470 2731 0
209 -210 1469 1470 -2732 0
-209 210 1469 -1470 -2732 0
-209 -210 2732 0
-209 1470 2732 0
209 210 2732 0
209 -1470 2732 0
-1469 2732 0
-1879 1880 1401 -1402 -2733 0
-1879 -1880 -1401 -1402 -2733 0
-1880 1401 2733 0
1880 -1401 2733 0
1879 2733 0
1402 2733 0
1879 -1880 1401 1402 -2734 0
-1879 1880 1401 -1402 -2734 0
-1879 -1880 2734 0
-1879 1402 2734 0
1879 1880 2734 0
1879 -1402 2734 0
-1401 2734 0
-67 68 69 -70 -2735 0
-67 -68 -69 -70 -2735 0
-68 69 2735 0
68 -69 2735 0
67 2735 0
70 2735 0
67 -68 69 70 -2736 0
-67 68 69 -70 -2736 0
-67 -68 2736 0
-67 70 2736 0
67 68 2736 0
67 -70 2736 0
-69 2736 0
-89 90 1879 -1880 -2737 0
-89 -90 -1879 -1880 -2737 0
-90 1879 2737 0
90 -1879 2737 0
89 2737 0
1880 2737 0
89 -90 1879 1880 -2738 0
-89 90 1879 -1880 -2738 0
-89 -90 2738 0
-89 1880 2738 0
89 90 2738 0
89 -1880 2738 0
-1879 2738 0
-41 42 43 -44 -2739 0
-41 -42 -43 -44 -2739 0
-42 43 2739 0
42 -43 2739 0
41 2739 0
44 2739 0
41 -42 43 44 -2740 0
-41 42 43 -44 -2740 0
-41 -42 2740 0
-41 44 2740 0
41 42 2740 0
41 -44 2740 0
-43 2740 0
-89 90 1879 -1880 -2741 0
-89 -90 -1879 -1880 -2741 0
-90 1879 2741 0
90 -1879 2741 0
89 2741 0
1880 2741 0
89 -90 1879 1880 -2742 0
-89 90 1879 -1880 -2742 0
-89 -90 2742 0
-89 1880 2742 0
89 90 2742 0
89 -1880 2742 0
-1879 2742 0
-29 30 31 -32 -2743 0
-29 -30 -31 -32 -2743 0
-30 31 2743 0
30 -31 2743 0
29 2743 0
32 2743 0
29 -30 31 32 -2744 0
-29 30 31 -32 -2744 0
-29 -30 2744 0
-29 32 2744 0
29 30 2744 0
29 -32 2744 0
-31 2744 0
-179 180 225 -226 -2745 0
-179 -180 -225 -226 -2745 0
-180 225 2745 0
180 -225 2745 0
179 2745 0
226 2745 0
179 -180 225 226 -2746 0
-179 180 225 -226 -2746 0
-179 -180 2746 0
-179 226 2746 0
179 180 2746 0
179 -226 2746 0
-225 2746 0
-29 30 31 -32 -2747 0
-29 -30 -31 -32 -2747 0
-30 31 2747 0
30 -31 2747 0
29 2747 0
32 2747 0
29 -30 31 32 -2748 0
-29 30 31 -32 -2748 0
-29 -30 2748 0
-29 32 2748 0
29 30 2748 0
29 -32 2748 0
-31 2748 0
-179 180 223 -224 -2749 0
-179 -180 -223 -224 -2749 0
-180 223 2749 0
180 -223 2749 0
179 2749 0
224 2749 0
179 -180 223 224 -2750 0
-179 180 223 -224 -2750 0
-179 -180 2750 0
-179 224 2750 0
179 180 2750 0
179 -224 2750 0
-223 2750 0
-67 68 91 -92 -2751 0
-67 -68 -91 -92 -2751 0
-68 91 2751 0
68 -91 2751 0
67 2751 0
92 2751 0
67 -68 91 92 -2752 0
-67 68 91 -92 -2752 0
-67 -68 2752 0
-67 92 2752 0
67 68 2752 0
67 -92 2752 0
-91 2752 0
-231 232 2751 -2752 -2753 0
-231 -232 -2751 -2752 -2753 0
-232 2751 2753 0
232 -2751 2753 0
231 2753 0
2752 2753 0
231 -232 2751 2752 -2754 0
-231 232 2751 -2752 -2754 0
-231 -232 2754 0
-231 2752 2754 0
231 232 2754 0
231 -2752 2754 0
-2751 2754 0
-1303 1304 1805 -1806 -2755 0
-1303 -1304 -1805 -1806 -2755 0
-1304 1805 2755 0
1304 -1805 2755 0
1303 2755 0
1806 2755 0
1303 -1304 1805 1806 -2756 0
-1303 1304 1805 -1806 -2756 0
-1303 -1304 2756 0
-1303 1806 2756 0
1303 1304 2756 0
1303 -1806 2756 0
-1805 2756 0
-91 92 231 -232 -2757 0
-91 -92 -231 -232 -2757 0
-92 231 2757 0
92 -231 2757 0
91 2757 0
232 2757 0
91 -92 231 232 -2758 0
-91 92 231 -232 -2758 0
-91 -92 2758 0
-91 232 2758 0
91 92 2758 0
91 -232 2758 0
-231 2758 0
-1667 1668 1303 -1304 -2759 0
-1667 -1668 -1303 -1304 -2759 0
-1668 1303 2759 0
1668 -1303 2759 0
1667 2759 0
1304 2759 0
1667 -1668 1303 1304 -2760 0
-1667 1668 1303 -1304 -2760 0
-1667 -1668 2760 0
-1667 1304 2760 0
1667 1668 2760 0
1667 -1304 2760 0
-1303 2760 0
-67 68 89 -90 -2761 0
-67 -68 -89 -90 -2761 0
-68 89 2761 0
68 -89 2761 0
67 2761 0
90 2761 0
67 -68 89 90 -2762 0
-67 68 89 -90 -2762 0
-67 -68 2762 0
-67 90 2762 0
67 68 2762 0
67 -90 2762 0
-89 2762 0
-67 68 89 -90 -2763 0
-67 -68 -89 -90 -2763 0
-68 89 2763 0
68 -89 2763 0
67 2763 0
90 2763 0
67 -68 89 90 -2764 0
-67 68 89 -90 -2764 0
-67 -68 2764 0
-67 90 2764 0
67 68 2764 0
67 -90 2764 0
-89 2764 0
-41 42 89 -90 -2765 0
-41 -42 -89 -90 -2765 0
-42 89 2765 0
42 -89 2765 0
41 2765 0
90 2765 0
41 -42 89 90 -2766 0
-41 42 89 -90 -2766 0
-41 -42 2766 0
-41 90 2766 0
41 42 2766 0
41 -90 2766 0
-89 2766 0
-81 82 179 -180 -2767 0
-81 -82 -179 -180 -2767 0
-82 179 2767 0
82 -179 2767 0
81 2767 0
180 2767 0
81 -82 179 180 -2768 0
-81 82 179 -180 -2768 0
-81 -82 2768 0
-81 180 2768 0
81 82 2768 0
81 -180 2768 0
-179 2768 0
-211 212 2767 -2768 -2769 0
-211 -212 -2767 -2768 -2769 0
-212 2767 2769 0
212 -2767 2769 0
211 2769 0
2768 2769 0
211 -212 2767 2768 -2770 0
-211 212 2767 -2768 -2770 0
-211 -212 2770 0
-211 2768 2770 0
211 212 2770 0
211 -2768 2770 0
-2767 2770 0
-213 214 1805 -1806 -2771 0
-213 -214 -1805 -1806 -2771 0
-214 1805 2771 0
214 -1805 2771 0
213 2771 0
1806 2771 0
213 -214 1805 1806 -2772 0
-213 214 1805 -1806 -2772 0
-213 -214 2772 0
-213 1806 2772 0
213 214 2772 0
213 -1806 2772 0
-1805 2772 0
-1469 1470 2771 -2772 -2773 0
-1469 -1470 -2771 -2772 -2773 0
-1470 2771 2773 0
1470 -2771 2773 0
1469 2773 0
2772 2773 0
1469 -1470 2771 2772 -2774 0
-1469 1470 2771 -2772 -2774 0
-1469 -1470 2774 0
-1469 2772 2774 0
1469 1470 2774 0
1469 -2772 2774 0
-2771 2774 0
-81 82 179 -180 -2775 0
-81 -82 -179 -180 -2775 0
-82 179 2775 0
82 -179 2775 0
81 2775 0
180 2775 0
81 -82 179 180 -2776 0
-81 82 179 -180 -2776 0
-81 -82 2776 0
-81 180 2776 0
81 82 2776 0
81 -180 2776 0
-179 2776 0
-209 210 2775 -2776 -2777 0
-209 -210 -2775 -2776 -2777 0
-210 2775 2777 0
210 -2775 2777 0
209 2777 0
2776 2777 0
209 -210 2775 2776 -2778 0
-209 210 2775 -2776 -2778 0
-209 -210 2778 0
-209 2776 2778 0
209 210 2778 0
209 -2776 2778 0
-2775 2778 0
-211 212 213 -214 -2779 0
-211 -212 -213 -214 -2779 0
-212 213 2779 0
212 -213 2779 0
211 2779 0
214 2779 0
211 -212 213 214 -2780 0
-211 212 213 -214 -2780 0
-211 -212 2780 0
-211 214 2780 0
211 212 2780 0
211 -214 2780 0
-213 2780 0
-1805 1806 2779 -2780 -2781 0
-1805 -1806 -2779 -2780 -2781 0
-1806 2779 2781 0
1806 -2779 2781 0
1805 2781 0
2780 2781 0
1805 -1806 2779 2780 -2782 0
-1805 1806 2779 -2780 -2782 0
-1805 -1806 2782 0
-1805 2780 2782 0
1805 1806 2782 0
1805 -2780 2782 0
-2779 2782 0
-81 82 179 -180 -2783 0
-81 -82 -179 -180 -2783 0
-82 179 2783 0
82 -179 2783 0
81 2783 0
180 2783 0
81 -82 179 180 -2784 0
-81 82 179 -180 -2784 0
-81 -82 2784 0
-81 180 2784 0
81 82 2784 0
81 -180 2784 0
-179 2784 0
-211 212 213 -214 -2785 0
-211 -212 -213 -214 -2785 0
-212 213 2785 0
212 -213 2785 0
211 2785 0
214 2785 0
211 -212 213 214 -2786 0
-211 212 213 -214 -2786 0
-211 -212 2786 0
-211 214 2786 0
211 212 2786 0
211 -214 2786 0
-213 2786 0
-81 82 179 -180 -2787 0
-81 -82 -179 -180 -2787 0
-82 179 2787 0
82 -179 2787 0
81 2787 0
180 2787 0
81 -82 179 180 -2788 0
-81 82 179 -180 -2788 0
-81 -82 2788 0
-81 180 2788 0
81 82 2788 0
81 -180 2788 0
-179 2788 0
-81 82 179 -180 -2789 0
-81 -82 -179 -180 -2789 0
-82 179 2789 0
82 -179 2789 0
81 2789 0
180 2789 0
81 -82 179 180 -2790 0
-81 82 179 -180 -2790 0
-81 -82 2790 0
-81 180 2790 0
81 82 2790 0
81 -180 2790 0
-179 2790 0
-81 82 179 -180 -2791 0
-81 -82 -179 -180 -2791 0
-82 179 2791 0
82 -179 2791 0
81 2791 0
180 2791 0
81 -82 179 180 -2792 0
-81 82 179 -180 -2792 0
-81 -82 2792 0
-81 180 2792 0
81 82 2792 0
81 -180 2792 0
-179 2792 0
-211 212 213 -214 -2793 0
-211 -212 -213 -214 -2793 0
-212 213 2793 0
212 -213 2793 0
211 2793 0
214 2793 0
211 -212 213 214 -2794 0
-211 212 213 -214 -2794 0
-211 -212 2794 0
-211 214 2794 0
211 212 2794 0
211 -214 2794 0
-213 2794 0
-209 210 211 -212 -2795 0
-209 -210 -211 -212 -2795 0
-210 211 2795 0
210 -211 2795 0
209 2795 0
212 2795 0
209 -210 211 212 -2796 0
-209 210 211 -212 -2796 0
-209 -210 2796 0
-209 212 2796 0
209 210 2796 0
209 -212 2796 0
-211 2796 0
-207 208 211 -212 -2797 0
-207 -208 -211 -212 -2797 0
-208 211 2797 0
208 -211 2797 0
207 2797 0
212 2797 0
207 -208 211 212 -2798 0
-207 208 211 -212 -2798 0
-207 -208 2798 0
-207 212 2798 0
207 208 2798 0
207 -212 2798 0
-211 2798 0
-29 30 31 -32 -2799 0
-29 -30 -31 -32 -2799 0
-30 31 2799 0
30 -31 2799 0
29 2799 0
32 2799 0
29 -30 31 32 -2800 0
-29 30 31 -32 -2800 0
-29 -30 2800 0
-29 32 2800 0
29 30 2800 0
29 -32 2800 0
-31 2800 0
-33 34 2799 -2800 -2801 0
-33 -34 -2799 -2800 -2801 0
-34 2799 2801 0
34 -2799 2801 0
33 2801 0
2800 2801 0
33 -34 2799 2800 -2802 0
-33 34 2799 -2800 -2802 0
-33 -34 2802 0
-33 2800 2802 0
33 34 2802 0
33 -2800 2802 0
-2799 2802 0
-137 138 139 -140 -2803 0
-137 -138 -139 -140 -2803 0
-138 139 2803 0
138 -139 2803 0
137 2803 0
140 2803 0
137 -138 139 140 -2804 0
-137 138 139 -140 -2804 0
-137 -138 2804 0
-137 140 2804 0
137 138 2804 0
137 -140 2804 0
-139 2804 0
-2801 2802 2803 -2804 -2805 0
-2801 -2802 -2803 -2804 -2805 0
-2802 2803 2805 0
2802 -2803 2805 0
2801 2805 0
2804 2805 0
2801 -2802 2803 2804 -2806 0
-2801 2802 2803 -2804 -2806 0
-2801 -2802 2806 0
-2801 2804 2806 0
2801 2802 2806 0
2801 -2804 2806 0
-2803 2806 0
-141 142 169 -170 -2807 0
-141 -142 -169 -170 -2807 0
-142 169 2807 0
142 -169 2807 0
141 2807 0
170 2807 0
141 -142 169 170 -2808 0
-141 142 169 -170 -2808 0
-141 -142 2808 0
-141 170 2808 0
141 142 2808 0
141 -170 2808 0
-169 2808 0
-171 172 1811 -1812 -2809 0
-171 -172 -1811 -1812 -2809 0
-172 1811 2809 0
172 -1811 2809 0
171 2809 0
1812 2809 0
171 -172 1811 1812 -2810 0
-171 172 1811 -1812 -2810 0
-171 -172 2810 0
-171 1812 2810 0
171 172 2810 0
171 -1812 2810 0
-1811 2810 0
-2807 2808 2809 -2810 -2811 0
-2807 -2808 -2809 -2810 -2811 0
-2808 2809 2811 0
2808 -2809 2811 0
2807 2811 0
2810 2811 0
2807 -2808 2809 2810 -2812 0
-2807 2808 2809 -2810 -2812 0
-2807 -2808 2812 0
-2807 2810 2812 0
2807 2808 2812 0
2807 -2810 2812 0
-2809 2812 0
-1 2 29 -30 -2813 0
-1 -2 -29 -30 -2813 0
-2 29 2813 0
2 -29 2813 0
1 2813 0
30 2813 0
1 -2 29 30 -2814 0
-1 2 29 -30 -2814 0
-1 -2 2814 0
-1 30 2814 0
1 2 2814 0
1 -30 2814 0
-29 2814 0
-31 32 2813 -2814 -2815 0
-31 -32 -2813 -2814 -2815 0
-32 2813 2815 0
32 -2813 2815 0
31 2815 0
2814 2815 0
31 -32 2813 2814 -2816 0
-31 32 2813 -2814 -2816 0
-31 -32 2816 0
-31 2814 2816 0
31 32 2816 0
31 -2814 2816 0
-2813 2816 0
-33 34 137 -138 -2817 0
-33 -34 -137 -138 -2817 0
-34 137 2817 0
34 -137 2817 0
33 2817 0
138 2817 0
33 -34 137 138 -2818 0
-33 34 137 -138 -2818 0
-33 -34 2818 0
-33 138 2818 0
33 34 2818 0
33 -138 2818 0
-137 2818 0
-2815 2816 2817 -2818 -2819 0
-2815 -2816 -2817 -2818 -2819 0
-2816 2817 2819 0
2816 -2817 2819 0
2815 2819 0
2818 2819 0
2815 -2816 2817 2818 -2820 0
-2815 2816 2817 -2818 -2820 0
-2815 -2816 2820 0
-2815 2818 2820 0
2815 2816 2820 0
2815 -2818 2820 0
-2817 2820 0
-139 140 141 -142 -2821 0
-139 -140 -141 -142 -2821 0
-140 141 2821 0
140 -141 2821 0
139 2821 0
142 2821 0
139 -140 141 142 -2822 0
-139 140 141 -142 -2822 0
-139 -140 2822 0
-139 142 2822 0
139 140 2822 0
139 -142 2822 0
-141 2822 0
-169 170 171 -172 -2823 0
-169 -170 -171 -172 -2823 0
-170 171 2823 0
170 -171 2823 0
169 2823 0
172 2823 0
169 -170 171 172 -2824 0
-169 170 171 -172 -2824 0
-169 -170 2824 0
-169 172 2824 0
169 170 2824 0
169 -172 2824 0
-171 2824 0
-2821 2822 2823 -2824 -2825 0
-2821 -2822 -2823 -2824 -2825 0
-2822 2823 2825 0
2822 -2823 2825 0
2821 2825 0
2824 2825 0
2821 -2822 2823 2824 -2826 0
-2821 2822 2823 -2824 -2826 0
-2821 -2822 2826 0
-2821 2824 2826 0
2821 2822 2826 0
2821 -2824 2826 0
-2823 2826 0
-29 30 31 -32 -2827 0
-29 -30 -31 -32 -2827 0
-30 31 2827 0
30 -31 2827 0
29 2827 0
32 2827 0
29 -30 31 32 -2828 0
-29 30 31 -32 -2828 0
-29 -30 2828 0
-29 32 2828 0
29 30 2828 0
29 -32 2828 0
-31 2828 0
-33 34 2827 -2828 -2829 0
-33 -34 -2827 -2828 -2829 0
-34 2827 2829 0
34 -2827 2829 0
33 2829 0
2828 2829 0
33 -34 2827 2828 -2830 0
-33 34 2827 -2828 -2830 0
-33 -34 2830 0
-33 2828 2830 0
33 34 2830 0
33 -2828 2830 0
-2827 2830 0
-115 116 117 -118 -2831 0
-115 -116 -117 -118 -2831 0
-116 117 2831 0
116 -117 2831 0
115 2831 0
118 2831 0
115 -116 117 118 -2832 0
-115 116 117 -118 -2832 0
-115 -116 2832 0
-115 118 2832 0
115 116 2832 0
115 -118 2832 0
-117 2832 0
-2829 2830 2831 -2832 -2833 0
-2829 -2830 -2831 -2832 -2833 0
-2830 2831 2833 0
2830 -2831 2833 0
2829 2833 0
2832 2833 0
2829 -2830 2831 2832 -2834 0
-2829 2830 2831 -2832 -2834 0
-2829 -2830 2834 0
-2829 2832 2834 0
2829 2830 2834 0
2829 -2832 2834 0
-2831 2834 0
-119 120 169 -170 -2835 0
-119 -120 -169 -170 -2835 0
-120 169 2835 0
120 -169 2835 0
119 2835 0
170 2835 0
119 -120 169 170 -2836 0
-119 120 169 -170 -2836 0
-119 -120 2836 0
-119 170 2836 0
119 120 2836 0
119 -170 2836 0
-169 2836 0
-171 172 1811 -1812 -2837 0
-171 -172 -1811 -1812 -2837 0
-172 1811 2837 0
172 -1811 2837 0
171 2837 0
1812 2837 0
171 -172 1811 1812 -2838 0
-171 172 1811 -1812 -2838 0
-171 -172 2838 0
-171 1812 2838 0
171 172 2838 0
171 -1812 2838 0
-1811 2838 0
-2835 2836 2837 -2838 -2839 0
-2835 -2836 -2837 -2838 -2839 0
-2836 2837 2839 0
2836 -2837 2839 0
2835 2839 0
2838 2839 0
2835 -2836 2837 2838 -2840 0
-2835 2836 2837 -2838 -2840 0
-2835 -2836 2840 0
-2835 2838 2840 0
2835 2836 2840 0
2835 -2838 2840 0
-2837 2840 0
-1 2 29 -30 -2841 0
-1 -2 -29 -30 -2841 0
-2 29 2841 0
2 -29 2841 0
1 2841 0
30 2841 0
1 -2 29 30 -2842 0
-1 2 29 -30 -2842 0
-1 -2 2842 0
-1 30 2842 0
1 2 2842 0
1 -30 2842 0
-29 2842 0
-31 32 2841 -2842 -2843 0
-31 -32 -2841 -2842 -2843 0
-32 2841 2843 0
32 -2841 2843 0
31 2843 0
2842 2843 0
31 -32 2841 2842 -2844 0
-31 32 2841 -2842 -2844 0
-31 -32 2844 0
-31 2842 2844 0
31 32 2844 0
31 -2842 2844 0
-2841 2844 0
-33 34 115 -116 -2845 0
-33 -34 -115 -116 -2845 0
-34 115 2845 0
34 -115 2845 0
33 2845 0
116 2845 0
33 -34 115 116 -2846 0
-33 34 115 -116 -2846 0
-33 -34 2846 0
-33 116 2846 0
33 34 2846 0
33 -116 2846 0
-115 2846 0
-2843 2844 2845 -2846 -2847 0
-2843 -2844 -2845 -2846 -2847 0
-2844 2845 2847 0
2844 -2845 2847 0
2843 2847 0
2846 2847 0
2843 -2844 2845 2846 -2848 0
-2843 2844 2845 -2846 -2848 0
-2843 -2844 2848 0
-2843 2846 2848 0
2843 2844 2848 0
2843 -2846 2848 0
-2845 2848 0
-117 118 119 -120 -2849 0
-117 -118 -119 -120 -2849 0
-118 119 2849 0
118 -119 2849 0
117 2849 0
120 2849 0
117 -118 119 120 -2850 0
-117 118 119 -120 -2850 0
-117 -118 2850 0
-117 120 2850 0
117 118 2850 0
117 -120 2850 0
-119 2850 0
-169 170 171 -172 -2851 0
-169 -170 -171 -172 -2851 0
-170 171 2851 0
170 -171 2851 0
169 2851 0
172 2851 0
169 -170 171 172 -2852 0
-169 170 171 -172 -2852 0
-169 -170 2852 0
-169 172 2852 0
169 170 2852 0
169 -172 2852 0
-171 2852 0
-2849 2850 2851 -2852 -2853 0
-2849 -2850 -2851 -2852 -2853 0
-2850 2851 2853 0
2850 -2851 2853 0
2849 2853 0
2852 2853 0
2849 -2850 2851 2852 -2854 0
-2849 2850 2851 -2852 -2854 0
-2849 -2850 2854 0
-2849 2852 2854 0
2849 2850 2854 0
2849 -2852 2854 0
-2851 2854 0
-1 2 115 -116 -2855 0
-1 -2 -115 -116 -2855 0
-2 115 2855 0
2 -115 2855 0
1 2855 0
116 2855 0
1 -2 115 116 -2856 0
-1 2 115 -116 -2856 0
-1 -2 2856 0
-1 116 2856 0
1 2 2856 0
1 -116 2856 0
-115 2856 0
-117 118 2855 -2856 -2857 0
-117 -118 -2855 -2856 -2857 0
-118 2855 2857 0
118 -2855 2857 0
117 2857 0
2856 2857 0
117 -118 2855 2856 -2858 0
-117 118 2855 -2856 -2858 0
-117 -118 2858 0
-117 2856 2858 0
117 118 2858 0
117 -2856 2858 0
-2855 2858 0
-119 120 137 -138 -2859 0
-119 -120 -137 -138 -2859 0
-120 137 2859 0
120 -137 2859 0
119 2859 0
138 2859 0
119 -120 137 138 -2860 0
-119 120 137 -138 -2860 0
-119 -120 2860 0
-119 138 2860 0
119 120 2860 0
119 -138 2860 0
-137 2860 0
-2857 2858 2859 -2860 -2861 0
-2857 -2858 -2859 -2860 -2861 0
-2858 2859 2861 0
2858 -2859 2861 0
2857 2861 0
2860 2861 0
2857 -2858 2859 2860 -2862 0
-2857 2858 2859 -2860 -2862 0
-2857 -2858 2862 0
-2857 2860 2862 0
2857 2858 2862 0
2857 -2860 2862 0
-2859 2862 0
-139 140 141 -142 -2863 0
-139 -140 -141 -142 -2863 0
-140 141 2863 0
140 -141 2863 0
139 2863 0
142 2863 0
139 -140 141 142 -2864 0
-139 140 141 -142 -2864 0
-139 -140 2864 0
-139 142 2864 0
139 140 2864 0
139 -142 2864 0
-141 2864 0
-169 170 171 -172 -2865 0
-169 -170 -171 -172 -2865 0
-170 171 2865 0
170 -171 2865 0
169 2865 0
172 2865 0
169 -170 171 172 -2866 0
-169 170 171 -172 -2866 0
-169 -170 2866 0
-169 172 2866 0
169 170 2866 0
169 -172 2866 0
-171 2866 0
-2863 2864 2865 -2866 -2867 0
-2863 -2864 -2865 -2866 -2867 0
-2864 2865 2867 0
2864 -2865 2867 0
2863 2867 0
2866 2867 0
2863 -2864 2865 2866 -2868 0
-2863 2864 2865 -2866 -2868 0
-2863 -2864 2868 0
-2863 2866 2868 0
2863 2864 2868 0
2863 -2866 2868 0
-2865 2868 0
-1 2 137 -138 -2869 0
-1 -2 -137 -138 -2869 0
-2 137 2869 0
2 -137 2869 0
1 2869 0
138 2869 0
1 -2 137 138 -2870 0
-1 2 137 -138 -2870 0
-1 -2 2870 0
-1 138 2870 0
1 2 2870 0
1 -138 2870 0
-137 2870 0
-139 140 2869 -2870 -2871 0
-139 -140 -2869 -2870 -2871 0
-140 2869 2871 0
140 -2869 2871 0
139 2871 0
2870 2871 0
139 -140 2869 2870 -2872 0
-139 140 2869 -2870 -2872 0
-139 -140 2872 0
-139 2870 2872 0
139 140 2872 0
139 -2870 2872 0
-2869 2872 0
-141 142 169 -170 -2873 0
-141 -142 -169 -170 -2873 0
-142 169 2873 0
142 -169 2873 0
141 2873 0
170 2873 0
141 -142 169 170 -2874 0
-141 142 169 -170 -2874 0
-141 -142 2874 0
-141 170 2874 0
141 142 2874 0
141 -170 2874 0
-169 2874 0
-171 172 2873 -2874 -2875 0
-171 -172 -2873 -2874 -2875 0
-172 2873 2875 0
172 -2873 2875 0
171 2875 0
2874 2875 0
171 -172 2873 2874 -2876 0
-171 172 2873 -2874 -2876 0
-171 -172 2876 0
-171 2874 2876 0
171 172 2876 0
171 -2874 2876 0
-2873 2876 0
-81 82 137 -138 -2877 0
-81 -82 -137 -138 -2877 0
-82 137 2877 0
82 -137 2877 0
81 2877 0
138 2877 0
81 -82 137 138 -2878 0
-81 82 137 -138 -2878 0
-81 -82 2878 0
-81 138 2878 0
81 82 2878 0
81 -138 2878 0
-137 2878 0
-141 142 169 -170 -2879 0
-141 -142 -169 -170 -2879 0
-142 169 2879 0
142 -169 2879 0
141 2879 0
170 2879 0
141 -142 169 170 -2880 0
-141 142 169 -170 -2880 0
-141 -142 2880 0
-141 170 2880 0
141 142 2880 0
141 -170 2880 0
-169 2880 0
-1 2 81 -82 -2881 0
-1 -2 -81 -82 -2881 0
-2 81 2881 0
2 -81 2881 0
1 2881 0
82 2881 0
1 -2 81 82 -2882 0
-1 2 81 -82 -2882 0
-1 -2 2882 0
-1 82 2882 0
1 2 2882 0
1 -82 2882 0
-81 2882 0
-137 138 2881 -2882 -2883 0
-137 -138 -2881 -2882 -2883 0
-138 2881 2883 0
138 -2881 2883 0
137 2883 0
2882 2883 0
137 -138 2881 2882 -2884 0
-137 138 2881 -2882 -2884 0
-137 -138 2884 0
-137 2882 2884 0
137 138 2884 0
137 -2882 2884 0
-2881 2884 0
-139 140 141 -142 -2885 0
-139 -140 -141 -142 -2885 0
-140 141 2885 0
140 -141 2885 0
139 2885 0
142 2885 0
139 -140 141 142 -2886 0
-139 140 141 -142 -2886 0
-139 -140 2886 0
-139 142 2886 0
139 140 2886 0
139 -142 2886 0
-141 2886 0
-169 170 2885 -2886 -2887 0
-169 -170 -2885 -2886 -2887 0
-170 2885 2887 0
170 -2885 2887 0
169 2887 0
2886 2887 0
169 -170 2885 2886 -2888 0
-169 170 2885 -2886 -2888 0
-169 -170 2888 0
-169 2886 2888 0
169 170 2888 0
169 -2886 2888 0
-2885 2888 0
-81 82 115 -116 -2889 0
-81 -82 -115 -116 -2889 0
-82 115 2889 0
82 -115 2889 0
81 2889 0
116 2889 0
81 -82 115 116 -2890 0
-81 82 115 -116 -2890 0
-81 -82 2890 0
-81 116 2890 0
81 82 2890 0
81 -116 2890 0
-115 2890 0
-117 118 2889 -2890 -2891 0
-117 -118 -2889 -2890 -2891 0
-118 2889 2891 0
118 -2889 2891 0
117 2891 0
2890 2891 0
117 -118 2889 2890 -2892 0
-117 118 2889 -2890 -2892 0
-117 -118 2892 0
-117 2890 2892 0
117 118 2892 0
117 -2890 2892 0
-2889 2892 0
-119 120 169 -170 -2893 0
-119 -120 -169 -170 -2893 0
-120 169 2893 0
120 -169 2893 0
119 2893 0
170 2893 0
119 -120 169 170 -2894 0
-119 120 169 -170 -2894 0
-119 -120 2894 0
-119 170 2894 0
119 120 2894 0
119 -170 2894 0
-169 2894 0
-1811 1812 2893 -2894 -2895 0
-1811 -1812 -2893 -2894 -2895 0
-1812 2893 2895 0
1812 -2893 2895 0
1811 2895 0
2894 2895 0
1811 -1812 2893 2894 -2896 0
-1811 1812 2893 -2894 -2896 0
-1811 -1812 2896 0
-1811 2894 2896 0
1811 1812 2896 0
1811 -2894 2896 0
-2893 2896 0
-1 2 81 -82 -2897 0
-1 -2 -81 -82 -2897 0
-2 81 2897 0
2 -81 2897 0
1 2897 0
82 2897 0
1 -2 81 82 -2898 0
-1 2 81 -82 -2898 0
-1 -2 2898 0
-1 82 2898 0
1 2 2898 0
1 -82 2898 0
-81 2898 0
-117 118 119 -120 -2899 0
-117 -118 -119 -120 -2899 0
-118 119 2899 0
118 -119 2899 0
117 2899 0
120 2899 0
117 -118 119 120 -2900 0
-117 118 119 -120 -2900 0
-117 -118 2900 0
-117 120 2900 0
117 118 2900 0
117 -120 2900 0
-119 2900 0
-1 2 137 -138 -2901 0
-1 -2 -137 -138 -2901 0
-2 137 2901 0
2 -137 2901 0
1 2901 0
138 2901 0
1 -2 137 138 -2902 0
-1 2 137 -138 -2902 0
-1 -2 2902 0
-1 138 2902 0
1 2 2902 0
1 -138 2902 0
-137 2902 0
-139 140 2901 -2902 -2903 0
-139 -140 -2901 -2902 -2903 0
-140 2901 2903 0
140 -2901 2903 0
139 2903 0
2902 2903 0
139 -140 2901 2902 -2904 0
-139 140 2901 -2902 -2904 0
-139 -140 2904 0
-139 2902 2904 0
139 140 2904 0
139 -2902 2904 0
-2901 2904 0
-141 142 171 -172 -2905 0
-141 -142 -171 -172 -2905 0
-142 171 2905 0
142 -171 2905 0
141 2905 0
172 2905 0
141 -142 171 172 -2906 0
-141 142 171 -172 -2906 0
-141 -142 2906 0
-141 172 2906 0
141 142 2906 0
141 -172 2906 0
-171 2906 0
-179 180 2905 -2906 -2907 0
-179 -180 -2905 -2906 -2907 0
-180 2905 2907 0
180 -2905 2907 0
179 2907 0
2906 2907 0
179 -180 2905 2906 -2908 0
-179 180 2905 -2906 -2908 0
-179 -180 2908 0
-179 2906 2908 0
179 180 2908 0
179 -2906 2908 0
-2905 2908 0
-29 30 31 -32 -2909 0
-29 -30 -31 -32 -2909 0
-30 31 2909 0
30 -31 2909 0
29 2909 0
32 2909 0
29 -30 31 32 -2910 0
-29 30 31 -32 -2910 0
-29 -30 2910 0
-29 32 2910 0
29 30 2910 0
29 -32 2910 0
-31 2910 0
-33 34 2909 -2910 -2911 0
-33 -34 -2909 -2910 -2911 0
-34 2909 2911 0
34 -2909 2911 0
33 2911 0
2910 2911 0
33 -34 2909 2910 -2912 0
-33 34 2909 -2910 -2912 0
-33 -34 2912 0
-33 2910 2912 0
33 34 2912 0
33 -2910 2912 0
-2909 2912 0
-171 172 179 -180 -2913 0
-171 -172 -179 -180 -2913 0
-172 179 2913 0
172 -179 2913 0
171 2913 0
180 2913 0
171 -172 179 180 -2914 0
-171 172 179 -180 -2914 0
-171 -172 2914 0
-171 180 2914 0
171 172 2914 0
171 -180 2914 0
-179 2914 0
-1 2 169 -170 -2915 0
-1 -2 -169 -170 -2915 0
-2 169 2915 0
2 -169 2915 0
1 2915 0
170 2915 0
1 -2 169 170 -2916 0
-1 2 169 -170 -2916 0
-1 -2 2916 0
-1 170 2916 0
1 2 2916 0
1 -170 2916 0
-169 2916 0
-171 172 2915 -2916 -2917 0
-171 -172 -2915 -2916 -2917 0
-172 2915 2917 0
172 -2915 2917 0
171 2917 0
2916 2917 0
171 -172 2915 2916 -2918 0
-171 172 2915 -2916 -2918 0
-171 -172 2918 0
-171 2916 2918 0
171 172 2918 0
171 -2916 2918 0
-2915 2918 0
-179 180 195 -196 -2919 0
-179 -180 -195 -196 -2919 0
-180 195 2919 0
180 -195 2919 0
179 2919 0
196 2919 0
179 -180 195 196 -2920 0
-179 180 195 -196 -2920 0
-179 -180 2920 0
-179 196 2920 0
179 180 2920 0
179 -196 2920 0
-195 2920 0
-1667 1668 2919 -2920 -2921 0
-1667 -1668 -2919 -2920 -2921 0
-1668 2919 2921 0
1668 -2919 2921 0
1667 2921 0
2920 2921 0
1667 -1668 2919 2920 -2922 0
-1667 1668 2919 -2920 -2922 0
-1667 -1668 2922 0
-1667 2920 2922 0
1667 1668 2922 0
1667 -2920 2922 0
-2919 2922 0
-2917 2918 2921 -2922 -2923 0
-2917 -2918 -2921 -2922 -2923 0
-2918 2921 2923 0
2918 -2921 2923 0
2917 2923 0
2922 2923 0
2917 -2918 2921 2922 -2924 0
-2917 2918 2921 -2922 -2924 0
-2917 -2918 2924 0
-2917 2922 2924 0
2917 2918 2924 0
2917 -2922 2924 0
-2921 2924 0
-1 2 143 -144 -2925 0
-1 -2 -143 -144 -2925 0
-2 143 2925 0
2 -143 2925 0
1 2925 0
144 2925 0
1 -2 143 144 -2926 0
-1 2 143 -144 -2926 0
-1 -2 2926 0
-1 144 2926 0
1 2 2926 0
1 -144 2926 0
-143 2926 0
-169 170 2925 -2926 -2927 0
-169 -170 -2925 -2926 -2927 0
-170 2925 2927 0
170 -2925 2927 0
169 2927 0
2926 2927 0
169 -170 2925 2926 -2928 0
-169 170 2925 -2926 -2928 0
-169 -170 2928 0
-169 2926 2928 0
169 170 2928 0
169 -2926 2928 0
-2925 2928 0
-171 172 179 -180 -2929 0
-171 -172 -179 -180 -2929 0
-172 179 2929 0
172 -179 2929 0
171 2929 0
180 2929 0
171 -172 179 180 -2930 0
-171 172 179 -180 -2930 0
-171 -172 2930 0
-171 180 2930 0
171 172 2930 0
171 -180 2930 0
-179 2930 0
-1667 1668 2929 -2930 -2931 0
-1667 -1668 -2929 -2930 -2931 0
-1668 2929 2931 0
1668 -2929 2931 0
1667 2931 0
2930 2931 0
1667 -1668 2929 2930 -2932 0
-1667 1668 2929 -2930 -2932 0
-1667 -1668 2932 0
-1667 2930 2932 0
1667 1668 2932 0
1667 -2930 2932 0
-2929 2932 0
-2927 2928 2931 -2932 -2933 0
-2927 -2928 -2931 -2932 -2933 0
-2928 2931 2933 0
2928 -2931 2933 0
2927 2933 0
2932 2933 0
2927 -2928 2931 2932 -2934 0
-2927 2928 2931 -2932 -2934 0
-2927 -2928 2934 0
-2927 2932 2934 0
2927 2928 2934 0
2927 -2932 2934 0
-2931 2934 0
-1 2 169 -170 -2935 0
-1 -2 -169 -170 -2935 0
-2 169 2935 0
2 -169 2935 0
1 2935 0
170 2935 0
1 -2 169 170 -2936 0
-1 2 169 -170 -2936 0
-1 -2 2936 0
-1 170 2936 0
1 2 2936 0
1 -170 2936 0
-169 2936 0
-171 172 2935 -2936 -2937 0
-171 -172 -2935 -2936 -2937 0
-172 2935 2937 0
172 -2935 2937 0
171 2937 0
2936 2937 0
171 -172 2935 2936 -2938 0
-171 172 2935 -2936 -2938 0
-171 -172 2938 0
-171 2936 2938 0
171 172 2938 0
171 -2936 2938 0
-2935 2938 0
-179 180 195 -196 -2939 0
-179 -180 -195 -196 -2939 0
-180 195 2939 0
180 -195 2939 0
179 2939 0
196 2939 0
179 -180 195 196 -2940 0
-179 180 195 -196 -2940 0
-179 -180 2940 0
-179 196 2940 0
179 180 2940 0
179 -196 2940 0
-195 2940 0
-1665 1666 2939 -2940 -2941 0
-1665 -1666 -2939 -2940 -2941 0
-1666 2939 2941 0
1666 -2939 2941 0
1665 2941 0
2940 2941 0
1665 -1666 2939 2940 -2942 0
-1665 1666 2939 -2940 -2942 0
-1665 -1666 2942 0
-1665 2940 2942 0
1665 1666 2942 0
1665 -2940 2942 0
-2939 2942 0
-2937 2938 2941 -2942 -2943 0
-2937 -2938 -2941 -2942 -2943 0
-2938 2941 2943 0
2938 -2941 2943 0
2937 2943 0
2942 2943 0
2937 -2938 2941 2942 -2944 0
-2937 2938 2941 -2942 -2944 0
-2937 -2938 2944 0
-2937 2942 2944 0
2937 2938 2944 0
2937 -2942 2944 0
-2941 2944 0
-1 2 143 -144 -2945 0
-1 -2 -143 -144 -2945 0
-2 143 2945 0
2 -143 2945 0
1 2945 0
144 2945 0
1 -2 143 144 -2946 0
-1 2 143 -144 -2946 0
-1 -2 2946 0
-1 144 2946 0
1 2 2946 0
1 -144 2946 0
-143 2946 0
-169 170 2945 -2946 -2947 0
-169 -170 -2945 -2946 -2947 0
-170 2945 2947 0
170 -2945 2947 0
169 2947 0
2946 2947 0
169 -170 2945 2946 -2948 0
-169 170 2945 -2946 -2948 0
-169 -170 2948 0
-169 2946 2948 0
169 170 2948 0
169 -2946 2948 0
-2945 2948 0
-171 172 179 -180 -2949 0
-171 -172 -179 -180 -2949 0
-172 179 2949 0
172 -179 2949 0
171 2949 0
180 2949 0
171 -172 179 180 -2950 0
-171 172 179 -180 -2950 0
-171 -172 2950 0
-171 180 2950 0
171 172 2950 0
171 -180 2950 0
-179 2950 0
-1665 1666 2949 -2950 -2951 0
-1665 -1666 -2949 -2950 -2951 0
-1666 2949 2951 0
1666 -2949 2951 0
1665 2951 0
2950 2951 0
1665 -1666 2949 2950 -2952 0
-1665 1666 2949 -2950 -2952 0
-1665 -1666 2952 0
-1665 2950 2952 0
1665 1666 2952 0
1665 -2950 2952 0
-2949 2952 0
-2947 2948 2951 -2952 -2953 0
-2947 -2948 -2951 -2952 -2953 0
-2948 2951 2953 0
2948 -2951 2953 0
2947 2953 0
2952 2953 0
2947 -2948 2951 2952 -2954 0
-2947 2948 2951 -2952 -2954 0
-2947 -2948 2954 0
-2947 2952 2954 0
2947 2948 2954 0
2947 -2952 2954 0
-2951 2954 0
-1 2 167 -168 -2955 0
-1 -2 -167 -168 -2955 0
-2 167 2955 0
2 -167 2955 0
1 2955 0
168 2955 0
1 -2 167 168 -2956 0
-1 2 167 -168 -2956 0
-1 -2 2956 0
-1 168 2956 0
1 2 2956 0
1 -168 2956 0
-167 2956 0
-169 170 2955 -2956 -2957 0
-169 -170 -2955 -2956 -2957 0
-170 2955 2957 0
170 -2955 2957 0
169 2957 0
2956 2957 0
169 -170 2955 2956 -2958 0
-169 170 2955 -2956 -2958 0
-169 -170 2958 0
-169 2956 2958 0
169 170 2958 0
169 -2956 2958 0
-2955 2958 0
-179 180 195 -196 -2959 0
-179 -180 -195 -196 -2959 0
-180 195 2959 0
180 -195 2959 0
179 2959 0
196 2959 0
179 -180 195 196 -2960 0
-179 180 195 -196 -2960 0
-179 -180 2960 0
-179 196 2960 0
179 180 2960 0
179 -196 2960 0
-195 2960 0
-1667 1668 2959 -2960 -2961 0
-1667 -1668 -2959 -2960 -2961 0
-1668 2959 2961 0
1668 -2959 2961 0
1667 2961 0
2960 2961 0
1667 -1668 2959 2960 -2962 0
-1667 1668 2959 -2960 -2962 0
-1667 -1668 2962 0
-1667 2960 2962 0
1667 1668 2962 0
1667 -2960 2962 0
-2959 2962 0
-2957 2958 2961 -2962 -2963 0
-2957 -2958 -2961 -2962 -2963 0
-2958 2961 2963 0
2958 -2961 2963 0
2957 2963 0
2962 2963 0
2957 -2958 2961 2962 -2964 0
-2957 2958 2961 -2962 -2964 0
-2957 -2958 2964 0
-2957 2962 2964 0
2957 2958 2964 0
2957 -2962 2964 0
-2961 2964 0
-1 2 143 -144 -2965 0
-1 -2 -143 -144 -2965 0
-2 143 2965 0
2 -143 2965 0
1 2965 0
144 2965 0
1 -2 143 144 -2966 0
-1 2 143 -144 -2966 0
-1 -2 2966 0
-1 144 2966 0
1 2 2966 0
1 -144 2966 0
-143 2966 0
-167 168 2965 -2966 -2967 0
-167 -168 -2965 -2966 -2967 0
-168 2965 2967 0
168 -2965 2967 0
167 2967 0
2966 2967 0
167 -168 2965 2966 -2968 0
-167 168 2965 -2966 -2968 0
-167 -168 2968 0
-167 2966 2968 0
167 168 2968 0
167 -2966 2968 0
-2965 2968 0
-169 170 179 -180 -2969 0
-169 -170 -179 -180 -2969 0
-170 179 2969 0
170 -179 2969 0
169 2969 0
180 2969 0
169 -170 179 180 -2970 0
-169 170 179 -180 -2970 0
-169 -170 2970 0
-169 180 2970 0
169 170 2970 0
169 -180 2970 0
-179 2970 0
-1667 1668 2969 -2970 -2971 0
-1667 -1668 -2969 -2970 -2971 0
-1668 2969 2971 0
1668 -2969 2971 0
1667 2971 0
2970 2971 0
1667 -1668 2969 2970 -2972 0
-1667 1668 2969 -2970 -2972 0
-1667 -1668 2972 0
-1667 2970 2972 0
1667 1668 2972 0
1667 -2970 2972 0
-2969 2972 0
-2967 2968 2971 -2972 -2973 0
-2967 -2968 -2971 -2972 -2973 0
-2968 2971 2973 0
2968 -2971 2973 0
2967 2973 0
2972 2973 0
2967 -2968 2971 2972 -2974 0
-2967 2968 2971 -2972 -2974 0
-2967 -2968 2974 0
-2967 2972 2974 0
2967 2968 2974 0
2967 -2972 2974 0
-2971 2974 0
-1 2 167 -168 -2975 0
-1 -2 -167 -168 -2975 0
-2 167 2975 0
2 -167 2975 0
1 2975 0
168 2975 0
1 -2 167 168 -2976 0
-1 2 167 -168 -2976 0
-1 -2 2976 0
-1 168 2976 0
1 2 2976 0
1 -168 2976 0
-167 2976 0
-169 170 2975 -2976 -2977 0
-169 -170 -2975 -2976 -2977 0
-170 2975 2977 0
170 -2975 2977 0
169 2977 0
2976 2977 0
169 -170 2975 2976 -2978 0
-169 170 2975 -2976 -2978 0
-169 -170 2978 0
-169 2976 2978 0
169 170 2978 0
169 -2976 2978 0
-2975 2978 0
-179 180 195 -196 -2979 0
-179 -180 -195 -196 -2979 0
-180 195 2979 0
180 -195 2979 0
179 2979 0
196 2979 0
179 -180 195 196 -2980 0
-179 180 195 -196 -2980 0
-179 -180 2980 0
-179 196 2980 0
179 180 2980 0
179 -196 2980 0
-195 2980 0
-1665 1666 2979 -2980 -2981 0
-1665 -1666 -2979 -2980 -2981 0
-1666 2979 2981 0
1666 -2979 2981 0
1665 2981 0
2980 2981 0
1665 -1666 2979 2980 -2982 0
-1665 1666 2979 -2980 -2982 0
-1665 -1666 2982 0
-1665 2980 2982 0
1665 1666 2982 0
1665 -2980 2982 0
-2979 2982 0
-1 2 143 -144 -2983 0
-1 -2 -143 -144 -2983 0
-2 143 2983 0
2 -143 2983 0
1 2983 0
144 2983 0
1 -2 143 144 -2984 0
-1 2 143 -144 -2984 0
-1 -2 2984 0
-1 144 2984 0
1 2 2984 0
1 -144 2984 0
-143 2984 0
-167 168 2983 -2984 -2985 0
-167 -168 -2983 -2984 -2985 0
-168 2983 2985 0
168 -2983 2985 0
167 2985 0
2984 2985 0
167 -168 2983 2984 -2986 0
-167 168 2983 -2984 -2986 0
-167 -168 2986 0
-167 2984 2986 0
167 168 2986 0
167 -2984 2986 0
-2983 2986 0
-169 170 179 -180 -2987 0
-169 -170 -179 -180 -2987 0
-170 179 2987 0
170 -179 2987 0
169 2987 0
180 2987 0
169 -170 179 180 -2988 0
-169 170 179 -180 -2988 0
-169 -170 2988 0
-169 180 2988 0
169 170 2988 0
169 -180 2988 0
-179 2988 0
-1665 1666 2987 -2988 -2989 0
-1665 -1666 -2987 -2988 -2989 0
-1666 2987 2989 0
1666 -2987 2989 0
1665 2989 0
2988 2989 0
1665 -1666 2987 2988 -2990 0
-1665 1666 2987 -2988 -2990 0
-1665 -1666 2990 0
-1665 2988 2990 0
1665 1666 2990 0
1665 -2988 2990 0
-2987 2990 0
-2985 2986 2989 -2990 -2991 0
-2985 -2986 -2989 -2990 -2991 0
-2986 2989 2991 0
2986 -2989 2991 0
2985 2991 0
2990 2991 0
2985 -2986 2989 2990 -2992 0
-2985 2986 2989 -2990 -2992 0
-2985 -2986 2992 0
-2985 2990 2992 0
2985 2986 2992 0
2985 -2990 2992 0
-2989 2992 0
-1 2 155 -156 -2993 0
-1 -2 -155 -156 -2993 0
-2 155 2993 0
2 -155 2993 0
1 2993 0
156 2993 0
1 -2 155 156 -2994 0
-1 2 155 -156 -2994 0
-1 -2 2994 0
-1 156 2994 0
1 2 2994 0
1 -156 2994 0
-155 2994 0
-179 180 2993 -2994 -2995 0
-179 -180 -2993 -2994 -2995 0
-180 2993 2995 0
180 -2993 2995 0
179 2995 0
2994 2995 0
179 -180 2993 2994 -2996 0
-179 180 2993 -2994 -2996 0
-179 -180 2996 0
-179 2994 2996 0
179 180 2996 0
179 -2994 2996 0
-2993 2996 0
-195 196 1667 -1668 -2997 0
-195 -196 -1667 -1668 -2997 0
-196 1667 2997 0
196 -1667 2997 0
195 2997 0
1668 2997 0
195 -196 1667 1668 -2998 0
-195 196 1667 -1668 -2998 0
-195 -196 2998 0
-195 1668 2998 0
195 196 2998 0
195 -1668 2998 0
-1667 2998 0
-2995 2996 2997 -2998 -2999 0
-2995 -2996 -2997 -2998 -2999 0
-2996 2997 2999 0
2996 -2997 2999 0
2995 2999 0
2998 2999 0
2995 -2996 2997 2998 -3000 0
-2995 2996 2997 -2998 -3000 0
-2995 -2996 3000 0
-2995 2998 3000 0
2995 2996 3000 0
2995 -2998 3000 0
-2997 3000 0
-1 2 143 -144 -3001 0
-1 -2 -143 -144 -3001 0
-2 143 3001 0
2 -143 3001 0
1 3001 0
144 3001 0
1 -2 143 144 -3002 0
-1 2 143 -144 -3002 0
-1 -2 3002 0
-1 144 3002 0
1 2 3002 0
1 -144 3002 0
-143 3002 0
-155 156 3001 -3002 -3003 0
-155 -156 -3001 -3002 -3003 0
-156 3001 3003 0
156 -3001 3003 0
155 3003 0
3002 3003 0
155 -156 3001 3002 -3004 0
-155 156 3001 -3002 -3004 0
-155 -156 3004 0
-155 3002 3004 0
155 156 3004 0
155 -3002 3004 0
-3001 3004 0
-179 180 1667 -1668 -3005 0
-179 -180 -1667 -1668 -3005 0
-180 1667 3005 0
180 -1667 3005 0
179 3005 0
1668 3005 0
179 -180 1667 1668 -3006 0
-179 180 1667 -1668 -3006 0
-179 -180 3006 0
-179 1668 3006 0
179 180 3006 0
179 -1668 3006 0
-1667 3006 0
-3003 3004 3005 -3006 -3007 0
-3003 -3004 -3005 -3006 -3007 0
-3004 3005 3007 0
3004 -3005 3007 0
3003 3007 0
3006 3007 0
3003 -3004 3005 3006 -3008 0
-3003 3004 3005 -3006 -3008 0
-3003 -3004 3008 0
-3003 3006 3008 0
3003 3004 3008 0
3003 -3006 3008 0
-3005 3008 0
-1 2 155 -156 -3009 0
-1 -2 -155 -156 -3009 0
-2 155 3009 0
2 -155 3009 0
1 3009 0
156 3009 0
1 -2 155 156 -3010 0
-1 2 155 -156 -3010 0
-1 -2 3010 0
-1 156 3010 0
1 2 3010 0
1 -156 3010 0
-155 3010 0
-179 180 3009 -3010 -3011 0
-179 -180 -3009 -3010 -3011 0
-180 3009 3011 0
180 -3009 3011 0
179 3011 0
3010 3011 0
179 -180 3009 3010 -3012 0
-179 180 3009 -3010 -3012 0
-179 -180 3012 0
-179 3010 3012 0
179 180 3012 0
179 -3010 3012 0
-3009 3012 0
-195 196 1665 -1666 -3013 0
-195 -196 -1665 -1666 -3013 0
-196 1665 3013 0
196 -1665 3013 0
195 3013 0
1666 3013 0
195 -196 1665 1666 -3014 0
-195 196 1665 -1666 -3014 0
-195 -196 3014 0
-195 1666 3014 0
195 196 3014 0
195 -1666 3014 0
-1665 3014 0
-3011 3012 3013 -3014 -3015 0
-3011 -3012 -3013 -3014 -3015 0
-3012 3013 3015 0
3012 -3013 3015 0
3011 3015 0
3014 3015 0
3011 -3012 3013 3014 -3016 0
-3011 3012 3013 -3014 -3016 0
-3011 -3012 3016 0
-3011 3014 3016 0
3011 3012 3016 0
3011 -3014 3016 0
-3013 3016 0
-1 2 143 -144 -3017 0
-1 -2 -143 -144 -3017 0
-2 143 3017 0
2 -143 3017 0
1 3017 0
144 3017 0
1 -2 143 144 -3018 0
-1 2 143 -144 -3018 0
-1 -2 3018 0
-1 144 3018 0
1 2 3018 0
1 -144 3018 0
-143 3018 0
-155 156 3017 -3018 -3019 0
-155 -156 -3017 -3018 -3019 0
-156 3017 3019 0
156 -3017 3019 0
155 3019 0
3018 3019 0
155 -156 3017 3018 -3020 0
-155 156 3017 -3018 -3020 0
-155 -156 3020 0
-155 3018 3020 0
155 156 3020 0
155 -3018 3020 0
-3017 3020 0
-179 180 1665 -1666 -3021 0
-179 -180 -1665 -1666 -3021 0
-180 1665 3021 0
180 -1665 3021 0
179 3021 0
1666 3021 0
179 -180 1665 1666 -3022 0
-179 180 1665 -1666 -3022 0
-179 -180 3022 0
-179 1666 3022 0
179 180 3022 0
179 -1666 3022 0
-1665 3022 0
-3019 3020 3021 -3022 -3023 0
-3019 -3020 -3021 -3022 -3023 0
-3020 3021 3023 0
3020 -3021 3023 0
3019 3023 0
3022 3023 0
3019 -3020 3021 3022 -3024 0
-3019 3020 3021 -3022 -3024 0
-3019 -3020 3024 0
-3019 3022 3024 0
3019 3020 3024 0
3019 -3022 3024 0
-3021 3024 0
-1 2 167 -168 -3025 0
-1 -2 -167 -168 -3025 0
-2 167 3025 0
2 -167 3025 0
1 3025 0
168 3025 0
1 -2 167 168 -3026 0
-1 2 167 -168 -3026 0
-1 -2 3026 0
-1 168 3026 0
1 2 3026 0
1 -168 3026 0
-167 3026 0
-171 172 3025 -3026 -3027 0
-171 -172 -3025 -3026 -3027 0
-172 3025 3027 0
172 -3025 3027 0
171 3027 0
3026 3027 0
171 -172 3025 3026 -3028 0
-171 172 3025 -3026 -3028 0
-171 -172 3028 0
-171 3026 3028 0
171 172 3028 0
171 -3026 3028 0
-3025 3028 0
-195 196 1667 -1668 -3029 0
-195 -196 -1667 -1668 -3029 0
-196 1667 3029 0
196 -1667 3029 0
195 3029 0
1668 3029 0
195 -196 1667 1668 -3030 0
-195 196 1667 -1668 -3030 0
-195 -196 3030 0
-195 1668 3030 0
195 196 3030 0
195 -1668 3030 0
-1667 3030 0
-3027 3028 3029 -3030 -3031 0
-3027 -3028 -3029 -3030 -3031 0
-3028 3029 3031 0
3028 -3029 3031 0
3027 3031 0
3030 3031 0
3027 -3028 3029 3030 -3032 0
-3027 3028 3029 -3030 -3032 0
-3027 -3028 3032 0
-3027 3030 3032 0
3027 3028 3032 0
3027 -3030 3032 0
-3029 3032 0
-1 2 143 -144 -3033 0
-1 -2 -143 -144 -3033 0
-2 143 3033 0
2 -143 3033 0
1 3033 0
144 3033 0
1 -2 143 144 -3034 0
-1 2 143 -144 -3034 0
-1 -2 3034 0
-1 144 3034 0
1 2 3034 0
1 -144 3034 0
-143 3034 0
-167 168 3033 -3034 -3035 0
-167 -168 -3033 -3034 -3035 0
-168 3033 3035 0
168 -3033 3035 0
167 3035 0
3034 3035 0
167 -168 3033 3034 -3036 0
-167 168 3033 -3034 -3036 0
-167 -168 3036 0
-167 3034 3036 0
167 168 3036 0
167 -3034 3036 0
-3033 3036 0
-171 172 1667 -1668 -3037 0
-171 -172 -1667 -1668 -3037 0
-172 1667 3037 0
172 -1667 3037 0
171 3037 0
1668 3037 0
171 -172 1667 1668 -3038 0
-171 172 1667 -1668 -3038 0
-171 -172 3038 0
-171 1668 3038 0
171 172 3038 0
171 -1668 3038 0
-1667 3038 0
-1 2 167 -168 -3039 0
-1 -2 -167 -168 -3039 0
-2 167 3039 0
2 -167 3039 0
1 3039 0
168 3039 0
1 -2 167 168 -3040 0
-1 2 167 -168 -3040 0
-1 -2 3040 0
-1 168 3040 0
1 2 3040 0
1 -168 3040 0
-167 3040 0
-171 172 3039 -3040 -3041 0
-171 -172 -3039 -3040 -3041 0
-172 3039 3041 0
172 -3039 3041 0
171 3041 0
3040 3041 0
171 -172 3039 3040 -3042 0
-171 172 3039 -3040 -3042 0
-171 -172 3042 0
-171 3040 3042 0
171 172 3042 0
171 -3040 3042 0
-3039 3042 0
-195 196 1665 -1666 -3043 0
-195 -196 -1665 -1666 -3043 0
-196 1665 3043 0
196 -1665 3043 0
195 3043 0
1666 3043 0
195 -196 1665 1666 -3044 0
-195 196 1665 -1666 -3044 0
-195 -196 3044 0
-195 1666 3044 0
195 196 3044 0
195 -1666 3044 0
-1665 3044 0
-3041 3042 3043 -3044 -3045 0
-3041 -3042 -3043 -3044 -3045 0
-3042 3043 3045 0
3042 -3043 3045 0
3041 3045 0
3044 3045 0
3041 -3042 3043 3044 -3046 0
-3041 3042 3043 -3044 -3046 0
-3041 -3042 3046 0
-3041 3044 3046 0
3041 3042 3046 0
3041 -3044 3046 0
-3043 3046 0
-1 2 143 -144 -3047 0
-1 -2 -143 -144 -3047 0
-2 143 3047 0
2 -143 3047 0
1 3047 0
144 3047 0
1 -2 143 144 -3048 0
-1 2 143 -144 -3048 0
-1 -2 3048 0
-1 144 3048 0
1 2 3048 0
1 -144 3048 0
-143 3048 0
-167 168 3047 -3048 -3049 0
-167 -168 -3047 -3048 -3049 0
-168 3047 3049 0
168 -3047 3049 0
167 3049 0
3048 3049 0
167 -168 3047 3048 -3050 0
-167 168 3047 -3048 -3050 0
-167 -168 3050 0
-167 3048 3050 0
167 168 3050 0
167 -3048 3050 0
-3047 3050 0
-171 172 1665 -1666 -3051 0
-171 -172 -1665 -1666 -3051 0
-172 1665 3051 0
172 -1665 3051 0
171 3051 0
1666 3051 0
171 -172 1665 1666 -3052 0
-171 172 1665 -1666 -3052 0
-171 -172 3052 0
-171 1666 3052 0
171 172 3052 0
171 -1666 3052 0
-1665 3052 0
-3049 3050 3051 -3052 -3053 0
-3049 -3050 -3051 -3052 -3053 0
-3050 3051 3053 0
3050 -3051 3053 0
3049 3053 0
3052 3053 0
3049 -3050 3051 3052 -3054 0
-3049 3050 3051 -3052 -3054 0
-3049 -3050 3054 0
-3049 3052 3054 0
3049 3050 3054 0
3049 -3052 3054 0
-3051 3054 0
-1 2 155 -156 -3055 0
-1 -2 -155 -156 -3055 0
-2 155 3055 0
2 -155 3055 0
1 3055 0
156 3055 0
1 -2 155 156 -3056 0
-1 2 155 -156 -3056 0
-1 -2 3056 0
-1 156 3056 0
1 2 3056 0
1 -156 3056 0
-155 3056 0
-171 172 3055 -3056 -3057 0
-171 -172 -3055 -3056 -3057 0
-172 3055 3057 0
172 -3055 3057 0
171 3057 0
3056 3057 0
171 -172 3055 3056 -3058 0
-171 172 3055 -3056 -3058 0
-171 -172 3058 0
-171 3056 3058 0
171 172 3058 0
171 -3056 3058 0
-3055 3058 0
-195 196 1667 -1668 -3059 0
-195 -196 -1667 -1668 -3059 0
-196 1667 3059 0
196 -1667 3059 0
195 3059 0
1668 3059 0
195 -196 1667 1668 -3060 0
-195 196 1667 -1668 -3060 0
-195 -196 3060 0
-195 1668 3060 0
195 196 3060 0
195 -1668 3060 0
-1667 3060 0
-3057 3058 3059 -3060 -3061 0
-3057 -3058 -3059 -3060 -3061 0
-3058 3059 3061 0
3058 -3059 3061 0
3057 3061 0
3060 3061 0
3057 -3058 3059 3060 -3062 0
-3057 3058 3059 -3060 -3062 0
-3057 -3058 3062 0
-3057 3060 3062 0
3057 3058 3062 0
3057 -3060 3062 0
-3059 3062 0
-1 2 143 -144 -3063 0
-1 -2 -143 -144 -3063 0
-2 143 3063 0
2 -143 3063 0
1 3063 0
144 3063 0
1 -2 143 144 -3064 0
-1 2 143 -144 -3064 0
-1 -2 3064 0
-1 144 3064 0
1 2 3064 0
1 -144 3064 0
-143 3064 0
-155 156 3063 -3064 -3065 0
-155 -156 -3063 -3064 -3065 0
-156 3063 3065 0
156 -3063 3065 0
155 3065 0
3064 3065 0
155 -156 3063 3064 -3066 0
-155 156 3063 -3064 -3066 0
-155 -156 3066 0
-155 3064 3066 0
155 156 3066 0
155 -3064 3066 0
-3063 3066 0
-171 172 1667 -1668 -3067 0
-171 -172 -1667 -1668 -3067 0
-172 1667 3067 0
172 -1667 3067 0
171 3067 0
1668 3067 0
171 -172 1667 1668 -3068 0
-171 172 1667 -1668 -3068 0
-171 -172 3068 0
-171 1668 3068 0
171 172 3068 0
171 -1668 3068 0
-1667 3068 0
-3065 3066 3067 -3068 -3069 0
-3065 -3066 -3067 -3068 -3069 0
-3066 3067 3069 0
3066 -3067 3069 0
3065 3069 0
3068 3069 0
3065 -3066 3067 3068 -3070 0
-3065 3066 3067 -3068 -3070 0
-3065 -3066 3070 0
-3065 3068 3070 0
3065 3066 3070 0
3065 -3068 3070 0
-3067 3070 0
-1 2 155 -156 -3071 0
-1 -2 -155 -156 -3071 0
-2 155 3071 0
2 -155 3071 0
1 3071 0
156 3071 0
1 -2 155 156 -3072 0
-1 2 155 -156 -3072 0
-1 -2 3072 0
-1 156 3072 0
1 2 3072 0
1 -156 3072 0
-155 3072 0
-171 172 3071 -3072 -3073 0
-171 -172 -3071 -3072 -3073 0
-172 3071 3073 0
172 -3071 3073 0
171 3073 0
3072 3073 0
171 -172 3071 3072 -3074 0
-171 172 3071 -3072 -3074 0
-171 -172 3074 0
-171 3072 3074 0
171 172 3074 0
171 -3072 3074 0
-3071 3074 0
-195 196 1665 -1666 -3075 0
-195 -196 -1665 -1666 -3075 0
-196 1665 3075 0
196 -1665 3075 0
195 3075 0
1666 3075 0
195 -196 1665 1666 -3076 0
-195 196 1665 -1666 -3076 0
-195 -196 3076 0
-195 1666 3076 0
195 196 3076 0
195 -1666 3076 0
-1665 3076 0
-3073 3074 3075 -3076 -3077 0
-3073 -3074 -3075 -3076 -3077 0
-3074 3075 3077 0
3074 -3075 3077 0
3073 3077 0
3076 3077 0
3073 -3074 3075 3076 -3078 0
-3073 3074 3075 -3076 -3078 0
-3073 -3074 3078 0
-3073 3076 3078 0
3073 3074 3078 0
3073 -3076 3078 0
-3075 3078 0
-1 2 143 -144 -3079 0
-1 -2 -143 -144 -3079 0
-2 143 3079 0
2 -143 3079 0
1 3079 0
144 3079 0
1 -2 143 144 -3080 0
-1 2 143 -144 -3080 0
-1 -2 3080 0
-1 144 3080 0
1 2 3080 0
1 -144 3080 0
-143 3080 0
-155 156 3079 -3080 -3081 0
-155 -156 -3079 -3080 -3081 0
-156 3079 3081 0
156 -3079 3081 0
155 3081 0
3080 3081 0
155 -156 3079 3080 -3082 0
-155 156 3079 -3080 -3082 0
-155 -156 3082 0
-155 3080 3082 0
155 156 3082 0
155 -3080 3082 0
-3079 3082 0
-171 172 1665 -1666 -3083 0
-171 -172 -1665 -1666 -3083 0
-172 1665 3083 0
172 -1665 3083 0
171 3083 0
1666 3083 0
171 -172 1665 1666 -3084 0
-171 172 1665 -1666 -3084 0
-171 -172 3084 0
-171 1666 3084 0
171 172 3084 0
171 -1666 3084 0
-1665 3084 0
-3081 3082 3083 -3084 -3085 0
-3081 -3082 -3083 -3084 -3085 0
-3082 3083 3085 0
3082 -3083 3085 0
3081 3085 0
3084 3085 0
3081 -3082 3083 3084 -3086 0
-3081 3082 3083 -3084 -3086 0
-3081 -3082 3086 0
-3081 3084 3086 0
3081 3082 3086 0
3081 -3084 3086 0
-3083 3086 0
-1 2 155 -156 -3087 0
-1 -2 -155 -156 -3087 0
-2 155 3087 0
2 -155 3087 0
1 3087 0
156 3087 0
1 -2 155 156 -3088 0
-1 2 155 -156 -3088 0
-1 -2 3088 0
-1 156 3088 0
1 2 3088 0
1 -156 3088 0
-155 3088 0
-169 170 3087 -3088 -3089 0
-169 -170 -3087 -3088 -3089 0
-170 3087 3089 0
170 -3087 3089 0
169 3089 0
3088 3089 0
169 -170 3087 3088 -3090 0
-169 170 3087 -3088 -3090 0
-169 -170 3090 0
-169 3088 3090 0
169 170 3090 0
169 -3088 3090 0
-3087 3090 0
-195 196 1667 -1668 -3091 0
-195 -196 -1667 -1668 -3091 0
-196 1667 3091 0
196 -1667 3091 0
195 3091 0
1668 3091 0
195 -196 1667 1668 -3092 0
-195 196 1667 -1668 -3092 0
-195 -196 3092 0
-195 1668 3092 0
195 196 3092 0
195 -1668 3092 0
-1667 3092 0
-1 2 143 -144 -3093 0
-1 -2 -143 -144 -3093 0
-2 143 3093 0
2 -143 3093 0
1 3093 0
144 3093 0
1 -2 143 144 -3094 0
-1 2 143 -144 -3094 0
-1 -2 3094 0
-1 144 3094 0
1 2 3094 0
1 -144 3094 0
-143 3094 0
-155 156 3093 -3094 -3095 0
-155 -156 -3093 -3094 -3095 0
-156 3093 3095 0
156 -3093 3095 0
155 3095 0
3094 3095 0
155 -156 3093 3094 -3096 0
-155 156 3093 -3094 -3096 0
-155 -156 3096 0
-155 3094 3096 0
155 156 3096 0
155 -3094 3096 0
-3093 3096 0
-169 170 1667 -1668 -3097 0
-169 -170 -1667 -1668 -3097 0
-170 1667 3097 0
170 -1667 3097 0
169 3097 0
1668 3097 0
169 -170 1667 1668 -3098 0
-169 170 1667 -1668 -3098 0
-169 -170 3098 0
-169 1668 3098 0
169 170 3098 0
169 -1668 3098 0
-1667 3098 0
-3095 3096 3097 -3098 -3099 0
-3095 -3096 -3097 -3098 -3099 0
-3096 3097 3099 0
3096 -3097 3099 0
3095 3099 0
3098 3099 0
3095 -3096 3097 3098 -3100 0
-3095 3096 3097 -3098 -3100 0
-3095 -3096 3100 0
-3095 3098 3100 0
3095 3096 3100 0
3095 -3098 3100 0
-3097 3100 0
-1 2 155 -156 -3101 0
-1 -2 -155 -156 -3101 0
-2 155 3101 0
2 -155 3101 0
1 3101 0
156 3101 0
1 -2 155 156 -3102 0
-1 2 155 -156 -3102 0
-1 -2 3102 0
-1 156 3102 0
1 2 3102 0
1 -156 3102 0
-155 3102 0
-169 170 3101 -3102 -3103 0
-169 -170 -3101 -3102 -3103 0
-170 3101 3103 0
170 -3101 3103 0
169 3103 0
3102 3103 0
169 -170 3101 3102 -3104 0
-169 170 3101 -3102 -3104 0
-169 -170 3104 0
-169 3102 3104 0
169 170 3104 0
169 -3102 3104 0
-3101 3104 0
-195 196 1665 -1666 -3105 0
-195 -196 -1665 -1666 -3105 0
-196 1665 3105 0
196 -1665 3105 0
195 3105 0
1666 3105 0
195 -196 1665 1666 -3106 0
-195 196 1665 -1666 -3106 0
-195 -196 3106 0
-195 1666 3106 0
195 196 3106 0
195 -1666 3106 0
-1665 3106 0
-3103 3104 3105 -3106 -3107 0
-3103 -3104 -3105 -3106 -3107 0
-3104 3105 3107 0
3104 -3105 3107 0
3103 3107 0
3106 3107 0
3103 -3104 3105 3106 -3108 0
-3103 3104 3105 -3106 -3108 0
-3103 -3104 3108 0
-3103 3106 3108 0
3103 3104 3108 0
3103 -3106 3108 0
-3105 3108 0
-1 2 143 -144 -3109 0
-1 -2 -143 -144 -3109 0
-2 143 3109 0
2 -143 3109 0
1 3109 0
144 3109 0
1 -2 143 144 -3110 0
-1 2 143 -144 -3110 0
-1 -2 3110 0
-1 144 3110 0
1 2 3110 0
1 -144 3110 0
-143 3110 0
-155 156 3109 -3110 -3111 0
-155 -156 -3109 -3110 -3111 0
-156 3109 3111 0
156 -3109 3111 0
155 3111 0
3110 3111 0
155 -156 3109 3110 -3112 0
-155 156 3109 -3110 -3112 0
-155 -156 3112 0
-155 3110 3112 0
155 156 3112 0
155 -3110 3112 0
-3109 3112 0
-169 170 1665 -1666 -3113 0
-169 -170 -1665 -1666 -3113 0
-170 1665 3113 0
170 -1665 3113 0
169 3113 0
1666 3113 0
169 -170 1665 1666 -3114 0
-169 170 1665 -1666 -3114 0
-169 -170 3114 0
-169 1666 3114 0
169 170 3114 0
169 -1666 3114 0
-1665 3114 0
-3111 3112 3113 -3114 -3115 0
-3111 -3112 -3113 -3114 -3115 0
-3112 3113 3115 0
3112 -3113 3115 0
3111 3115 0
3114 3115 0
3111 -3112 3113 3114 -3116 0
-3111 3112 3113 -3114 -3116 0
-3111 -3112 3116 0
-3111 3114 3116 0
3111 3112 3116 0
3111 -3114 3116 0
-3113 3116 0
-1 2 155 -156 -3117 0
-1 -2 -155 -156 -3117 0
-2 155 3117 0
2 -155 3117 0
1 3117 0
156 3117 0
1 -2 155 156 -3118 0
-1 2 155 -156 -3118 0
-1 -2 3118 0
-1 156 3118 0
1 2 3118 0
1 -156 3118 0
-155 3118 0
-167 168 3117 -3118 -3119 0
-167 -168 -3117 -3118 -3119 0
-168 3117 3119 0
168 -3117 3119 0
167 3119 0
3118 3119 0
167 -168 3117 3118 -3120 0
-167 168 3117 -3118 -3120 0
-167 -168 3120 0
-167 3118 3120 0
167 168 3120 0
167 -3118 3120 0
-3117 3120 0
-195 196 1667 -1668 -3121 0
-195 -196 -1667 -1668 -3121 0
-196 1667 3121 0
196 -1667 3121 0
195 3121 0
1668 3121 0
195 -196 1667 1668 -3122 0
-195 196 1667 -1668 -3122 0
-195 -196 3122 0
-195 1668 3122 0
195 196 3122 0
195 -1668 3122 0
-1667 3122 0
-3119 3120 3121 -3122 -3123 0
-3119 -3120 -3121 -3122 -3123 0
-3120 3121 3123 0
3120 -3121 3123 0
3119 3123 0
3122 3123 0
3119 -3120 3121 3122 -3124 0
-3119 3120 3121 -3122 -3124 0
-3119 -3120 3124 0
-3119 3122 3124 0
3119 3120 3124 0
3119 -3122 3124 0
-3121 3124 0
-1 2 143 -144 -3125 0
-1 -2 -143 -144 -3125 0
-2 143 3125 0
2 -143 3125 0
1 3125 0
144 3125 0
1 -2 143 144 -3126 0
-1 2 143 -144 -3126 0
-1 -2 3126 0
-1 144 3126 0
1 2 3126 0
1 -144 3126 0
-143 3126 0
-155 156 3125 -3126 -3127 0
-155 -156 -3125 -3126 -3127 0
-156 3125 3127 0
156 -3125 3127 0
155 3127 0
3126 3127 0
155 -156 3125 3126 -3128 0
-155 156 3125 -3126 -3128 0
-155 -156 3128 0
-155 3126 3128 0
155 156 3128 0
155 -3126 3128 0
-3125 3128 0
-167 168 1667 -1668 -3129 0
-167 -168 -1667 -1668 -3129 0
-168 1667 3129 0
168 -1667 3129 0
167 3129 0
1668 3129 0
167 -168 1667 1668 -3130 0
-167 168 1667 -1668 -3130 0
-167 -168 3130 0
-167 1668 3130 0
167 168 3130 0
167 -1668 3130 0
-1667 3130 0
-3127 3128 3129 -3130 -3131 0
-3127 -3128 -3129 -3130 -3131 0
-3128 3129 3131 0
3128 -3129 3131 0
3127 3131 0
3130 3131 0
3127 -3128 3129 3130 -3132 0
-3127 3128 3129 -3130 -3132 0
-3127 -3128 3132 0
-3127 3130 3132 0
3127 3128 3132 0
3127 -3130 3132 0
-3129 3132 0
-1 2 155 -156 -3133 0
-1 -2 -155 -156 -3133 0
-2 155 3133 0
2 -155 3133 0
1 3133 0
156 3133 0
1 -2 155 156 -3134 0
-1 2 155 -156 -3134 0
-1 -2 3134 0
-1 156 3134 0
1 2 3134 0
1 -156 3134 0
-155 3134 0
-167 168 3133 -3134 -3135 0
-167 -168 -3133 -3134 -3135 0
-168 3133 3135 0
168 -3133 3135 0
167 3135 0
3134 3135 0
167 -168 3133 3134 -3136 0
-167 168 3133 -3134 -3136 0
-167 -168 3136 0
-167 3134 3136 0
167 168 3136 0
167 -3134 3136 0
-3133 3136 0
-195 196 1665 -1666 -3137 0
-195 -196 -1665 -1666 -3137 0
-196 1665 3137 0
196 -1665 3137 0
195 3137 0
1666 3137 0
195 -196 1665 1666 -3138 0
-195 196 1665 -1666 -3138 0
-195 -196 3138 0
-195 1666 3138 0
195 196 3138 0
195 -1666 3138 0
-1665 3138 0
-3135 3136 3137 -3138 -3139 0
-3135 -3136 -3137 -3138 -3139 0
-3136 3137 3139 0
3136 -3137 3139 0
3135 3139 0
3138 3139 0
3135 -3136 3137 3138 -3140 0
-3135 3136 3137 -3138 -3140 0
-3135 -3136 3140 0
-3135 3138 3140 0
3135 3136 3140 0
3135 -3138 3140 0
-3137 3140 0
-1 2 143 -144 -3141 0
-1 -2 -143 -144 -3141 0
-2 143 3141 0
2 -143 3141 0
1 3141 0
144 3141 0
1 -2 143 144 -3142 0
-1 2 143 -144 -3142 0
-1 -2 3142 0
-1 144 3142 0
1 2 3142 0
1 -144 3142 0
-143 3142 0
-155 156 3141 -3142 -3143 0
-155 -156 -3141 -3142 -3143 0
-156 3141 3143 0
156 -3141 3143 0
155 3143 0
3142 3143 0
155 -156 3141 3142 -3144 0
-155 156 3141 -3142 -3144 0
-155 -156 3144 0
-155 3142 3144 0
155 156 3144 0
155 -3142 3144 0
-3141 3144 0
-167 168 1665 -1666 -3145 0
-167 -168 -1665 -1666 -3145 0
-168 1665 3145 0
168 -1665 3145 0
167 3145 0
1666 3145 0
167 -168 1665 1666 -3146 0
-167 168 1665 -1666 -3146 0
-167 -168 3146 0
-167 1666 3146 0
167 168 3146 0
167 -1666 3146 0
-1665 3146 0
-205 206 259 -260 -3147 0
-205 -206 -259 -260 -3147 0
-206 259 3147 0
206 -259 3147 0
205 3147 0
260 3147 0
205 -206 259 260 -3148 0
-205 206 259 -260 -3148 0
-205 -206 3148 0
-205 260 3148 0
205 206 3148 0
205 -260 3148 0
-259 3148 0
-1467 1468 1469 -1470 -3149 0
-1467 -1468 -1469 -1470 -3149 0
-1468 1469 3149 0
1468 -1469 3149 0
1467 3149 0
1470 3149 0
1467 -1468 1469 1470 -3150 0
-1467 1468 1469 -1470 -3150 0
-1467 -1468 3150 0
-1467 1470 3150 0
1467 1468 3150 0
1467 -1470 3150 0
-1469 3150 0
-37 38 197 -198 -3151 0
-37 -38 -197 -198 -3151 0
-38 197 3151 0
38 -197 3151 0
37 3151 0
198 3151 0
37 -38 197 198 -3152 0
-37 38 197 -198 -3152 0
-37 -38 3152 0
-37 198 3152 0
37 38 3152 0
37 -198 3152 0
-197 3152 0
-135 136 139 -140 -3153 0
-135 -136 -139 -140 -3153 0
-136 139 3153 0
136 -139 3153 0
135 3153 0
140 3153 0
135 -136 139 140 -3154 0
-135 136 139 -140 -3154 0
-135 -136 3154 0
-135 140 3154 0
135 136 3154 0
135 -140 3154 0
-139 3154 0
-141 142 171 -172 -3155 0
-141 -142 -171 -172 -3155 0
-142 171 3155 0
142 -171 3155 0
141 3155 0
172 3155 0
141 -142 171 172 -3156 0
-141 142 171 -172 -3156 0
-141 -142 3156 0
-141 172 3156 0
141 142 3156 0
141 -172 3156 0
-171 3156 0
-179 180 185 -186 -3157 0
-179 -180 -185 -186 -3157 0
-180 185 3157 0
180 -185 3157 0
179 3157 0
186 3157 0
179 -180 185 186 -3158 0
-179 180 185 -186 -3158 0
-179 -180 3158 0
-179 186 3158 0
179 180 3158 0
179 -186 3158 0
-185 3158 0
-135 136 139 -140 -3159 0
-135 -136 -139 -140 -3159 0
-136 139 3159 0
136 -139 3159 0
135 3159 0
140 3159 0
135 -136 139 140 -3160 0
-135 136 139 -140 -3160 0
-135 -136 3160 0
-135 140 3160 0
135 136 3160 0
135 -140 3160 0
-139 3160 0
-141 142 171 -172 -3161 0
-141 -142 -171 -172 -3161 0
-142 171 3161 0
142 -171 3161 0
141 3161 0
172 3161 0
141 -142 171 172 -3162 0
-141 142 171 -172 -3162 0
-141 -142 3162 0
-141 172 3162 0
141 142 3162 0
141 -172 3162 0
-171 3162 0
-179 180 185 -186 -3163 0
-179 -180 -185 -186 -3163 0
-180 185 3163 0
180 -185 3163 0
179 3163 0
186 3163 0
179 -180 185 186 -3164 0
-179 180 185 -186 -3164 0
-179 -180 3164 0
-179 186 3164 0
179 180 3164 0
179 -186 3164 0
-185 3164 0
-135 136 139 -140 -3165 0
-135 -136 -139 -140 -3165 0
-136 139 3165 0
136 -139 3165 0
135 3165 0
140 3165 0
135 -136 139 140 -3166 0
-135 136 139 -140 -3166 0
-135 -136 3166 0
-135 140 3166 0
135 136 3166 0
135 -140 3166 0
-139 3166 0
-141 142 167 -168 -3167 0
-141 -142 -167 -168 -3167 0
-142 167 3167 0
142 -167 3167 0
141 3167 0
168 3167 0
141 -142 167 168 -3168 0
-141 142 167 -168 -3168 0
-141 -142 3168 0
-141 168 3168 0
141 142 3168 0
141 -168 3168 0
-167 3168 0
-179 180 185 -186 -3169 0
-179 -180 -185 -186 -3169 0
-180 185 3169 0
180 -185 3169 0
179 3169 0
186 3169 0
179 -180 185 186 -3170 0
-179 180 185 -186 -3170 0
-179 -180 3170 0
-179 186 3170 0
179 180 3170 0
179 -186 3170 0
-185 3170 0
-135 136 139 -140 -3171 0
-135 -136 -139 -140 -3171 0
-136 139 3171 0
136 -139 3171 0
135 3171 0
140 3171 0
135 -136 139 140 -3172 0
-135 136 139 -140 -3172 0
-135 -136 3172 0
-135 140 3172 0
135 136 3172 0
135 -140 3172 0
-139 3172 0
-141 142 167 -168 -3173 0
-141 -142 -167 -168 -3173 0
-142 167 3173 0
142 -167 3173 0
141 3173 0
168 3173 0
141 -142 167 168 -3174 0
-141 142 167 -168 -3174 0
-141 -142 3174 0
-141 168 3174 0
141 142 3174 0
141 -168 3174 0
-167 3174 0
-179 180 185 -186 -3175 0
-179 -180 -185 -186 -3175 0
-180 185 3175 0
180 -185 3175 0
179 3175 0
186 3175 0
179 -180 185 186 -3176 0
-179 180 185 -186 -3176 0
-179 -180 3176 0
-179 186 3176 0
179 180 3176 0
179 -186 3176 0
-185 3176 0
-135 136 139 -140 -3177 0
-135 -136 -139 -140 -3177 0
-136 139 3177 0
136 -139 3177 0
135 3177 0
140 3177 0
135 -136 139 140 -3178 0
-135 136 139 -140 -3178 0
-135 -136 3178 0
-135 140 3178 0
135 136 3178 0
135 -140 3178 0
-139 3178 0
-155 156 171 -172 -3179 0
-155 -156 -171 -172 -3179 0
-156 171 3179 0
156 -171 3179 0
155 3179 0
172 3179 0
155 -156 171 172 -3180 0
-155 156 171 -172 -3180 0
-155 -156 3180 0
-155 172 3180 0
155 156 3180 0
155 -172 3180 0
-171 3180 0
-135 136 139 -140 -3181 0
-135 -136 -139 -140 -3181 0
-136 139 3181 0
136 -139 3181 0
135 3181 0
140 3181 0
135 -136 139 140 -3182 0
-135 136 139 -140 -3182 0
-135 -136 3182 0
-135 140 3182 0
135 136 3182 0
135 -140 3182 0
-139 3182 0
-155 156 171 -172 -3183 0
-155 -156 -171 -172 -3183 0
-156 171 3183 0
156 -171 3183 0
155 3183 0
172 3183 0
155 -156 171 172 -3184 0
-155 156 171 -172 -3184 0
-155 -156 3184 0
-155 172 3184 0
155 156 3184 0
155 -172 3184 0
-171 3184 0
-135 136 139 -140 -3185 0
-135 -136 -139 -140 -3185 0
-136 139 3185 0
136 -139 3185 0
135 3185 0
140 3185 0
135 -136 139 140 -3186 0
-135 136 139 -140 -3186 0
-135 -136 3186 0
-135 140 3186 0
135 136 3186 0
135 -140 3186 0
-139 3186 0
-155 156 167 -168 -3187 0
-155 -156 -167 -168 -3187 0
-156 167 3187 0
156 -167 3187 0
155 3187 0
168 3187 0
155 -156 167 168 -3188 0
-155 156 167 -168 -3188 0
-155 -156 3188 0
-155 168 3188 0
155 156 3188 0
155 -168 3188 0
-167 3188 0
-135 136 139 -140 -3189 0
-135 -136 -139 -140 -3189 0
-136 139 3189 0
136 -139 3189 0
135 3189 0
140 3189 0
135 -136 139 140 -3190 0
-135 136 139 -140 -3190 0
-135 -136 3190 0
-135 140 3190 0
135 136 3190 0
135 -140 3190 0
-139 3190 0
-155 156 167 -168 -3191 0
-155 -156 -167 -168 -3191 0
-156 167 3191 0
156 -167 3191 0
155 3191 0
168 3191 0
155 -156 167 168 -3192 0
-155 156 167 -168 -3192 0
-155 -156 3192 0
-155 168 3192 0
155 156 3192 0
155 -168 3192 0
-167 3192 0
-25 26 59 -60 -3193 0
-25 -26 -59 -60 -3193 0
-26 59 3193 0
26 -59 3193 0
25 3193 0
60 3193 0
25 -26 59 60 -3194 0
-25 26 59 -60 -3194 0
-25 -26 3194 0
-25 60 3194 0
25 26 3194 0
25 -60 3194 0
-59 3194 0
-67 68 89 -90 -3195 0
-67 -68 -89 -90 -3195 0
-68 89 3195 0
68 -89 3195 0
67 3195 0
90 3195 0
67 -68 89 90 -3196 0
-67 68 89 -90 -3196 0
-67 -68 3196 0
-67 90 3196 0
67 68 3196 0
67 -90 3196 0
-89 3196 0
-3193 3194 3195 -3196 -3197 0
-3193 -3194 -3195 -3196 -3197 0
-3194 3195 3197 0
3194 -3195 3197 0
3193 3197 0
3196 3197 0
3193 -3194 3195 3196 -3198 0
-3193 3194 3195 -3196 -3198 0
-3193 -3194 3198 0
-3193 3196 3198 0
3193 3194 3198 0
3193 -3196 3198 0
-3195 3198 0
-197 198 201 -202 -3199 0
-197 -198 -201 -202 -3199 0
-198 201 3199 0
198 -201 3199 0
197 3199 0
202 3199 0
197 -198 201 202 -3200 0
-197 198 201 -202 -3200 0
-197 -198 3200 0
-197 202 3200 0
197 198 3200 0
197 -202 3200 0
-201 3200 0
-203 204 3199 -3200 -3201 0
-203 -204 -3199 -3200 -3201 0
-204 3199 3201 0
204 -3199 3201 0
203 3201 0
3200 3201 0
203 -204 3199 3200 -3202 0
-203 204 3199 -3200 -3202 0
-203 -204 3202 0
-203 3200 3202 0
203 204 3202 0
203 -3200 3202 0
-3199 3202 0
-21 22 59 -60 -3203 0
-21 -22 -59 -60 -3203 0
-22 59 3203 0
22 -59 3203 0
21 3203 0
60 3203 0
21 -22 59 60 -3204 0
-21 22 59 -60 -3204 0
-21 -22 3204 0
-21 60 3204 0
21 22 3204 0
21 -60 3204 0
-59 3204 0
-67 68 89 -90 -3205 0
-67 -68 -89 -90 -3205 0
-68 89 3205 0
68 -89 3205 0
67 3205 0
90 3205 0
67 -68 89 90 -3206 0
-67 68 89 -90 -3206 0
-67 -68 3206 0
-67 90 3206 0
67 68 3206 0
67 -90 3206 0
-89 3206 0
-3203 3204 3205 -3206 -3207 0
-3203 -3204 -3205 -3206 -3207 0
-3204 3205 3207 0
3204 -3205 3207 0
3203 3207 0
3206 3207 0
3203 -3204 3205 3206 -3208 0
-3203 3204 3205 -3206 -3208 0
-3203 -3204 3208 0
-3203 3206 3208 0
3203 3204 3208 0
3203 -3206 3208 0
-3205 3208 0
-197 198 201 -202 -3209 0
-197 -198 -201 -202 -3209 0
-198 201 3209 0
198 -201 3209 0
197 3209 0
202 3209 0
197 -198 201 202 -3210 0
-197 198 201 -202 -3210 0
-197 -198 3210 0
-197 202 3210 0
197 198 3210 0
197 -202 3210 0
-201 3210 0
-203 204 3209 -3210 -3211 0
-203 -204 -3209 -3210 -3211 0
-204 3209 3211 0
204 -3209 3211 0
203 3211 0
3210 3211 0
203 -204 3209 3210 -3212 0
-203 204 3209 -3210 -3212 0
-203 -204 3212 0
-203 3210 3212 0
203 204 3212 0
203 -3210 3212 0
-3209 3212 0
-25 26 41 -42 -3213 0
-25 -26 -41 -42 -3213 0
-26 41 3213 0
26 -41 3213 0
25 3213 0
42 3213 0
25 -26 41 42 -3214 0
-25 26 41 -42 -3214 0
-25 -26 3214 0
-25 42 3214 0
25 26 3214 0
25 -42 3214 0
-41 3214 0
-59 60 89 -90 -3215 0
-59 -60 -89 -90 -3215 0
-60 89 3215 0
60 -89 3215 0
59 3215 0
90 3215 0
59 -60 89 90 -3216 0
-59 60 89 -90 -3216 0
-59 -60 3216 0
-59 90 3216 0
59 60 3216 0
59 -90 3216 0
-89 3216 0
-197 198 201 -202 -3217 0
-197 -198 -201 -202 -3217 0
-198 201 3217 0
198 -201 3217 0
197 3217 0
202 3217 0
197 -198 201 202 -3218 0
-197 198 201 -202 -3218 0
-197 -198 3218 0
-197 202 3218 0
197 198 3218 0
197 -202 3218 0
-201 3218 0
-21 22 41 -42 -3219 0
-21 -22 -41 -42 -3219 0
-22 41 3219 0
22 -41 3219 0
21 3219 0
42 3219 0
21 -22 41 42 -3220 0
-21 22 41 -42 -3220 0
-21 -22 3220 0
-21 42 3220 0
21 22 3220 0
21 -42 3220 0
-41 3220 0
-59 60 89 -90 -3221 0
-59 -60 -89 -90 -3221 0
-60 89 3221 0
60 -89 3221 0
59 3221 0
90 3221 0
59 -60 89 90 -3222 0
-59 60 89 -90 -3222 0
-59 -60 3222 0
-59 90 3222 0
59 60 3222 0
59 -90 3222 0
-89 3222 0
-197 198 201 -202 -3223 0
-197 -198 -201 -202 -3223 0
-198 201 3223 0
198 -201 3223 0
197 3223 0
202 3223 0
197 -198 201 202 -3224 0
-197 198 201 -202 -3224 0
-197 -198 3224 0
-197 202 3224 0
197 198 3224 0
197 -202 3224 0
-201 3224 0
-15 16 67 -68 -3225 0
-15 -16 -67 -68 -3225 0
-16 67 3225 0
16 -67 3225 0
15 3225 0
68 3225 0
15 -16 67 68 -3226 0
-15 16 67 -68 -3226 0
-15 -16 3226 0
-15 68 3226 0
15 16 3226 0
15 -68 3226 0
-67 3226 0
-15 16 41 -42 -3227 0
-15 -16 -41 -42 -3227 0
-16 41 3227 0
16 -41 3227 0
15 3227 0
42 3227 0
15 -16 41 42 -3228 0
-15 16 41 -42 -3228 0
-15 -16 3228 0
-15 42 3228 0
15 16 3228 0
15 -42 3228 0
-41 3228 0
-89 90 3227 -3228 -3229 0
-89 -90 -3227 -3228 -3229 0
-90 3227 3229 0
90 -3227 3229 0
89 3229 0
3228 3229 0
89 -90 3227 3228 -3230 0
-89 90 3227 -3228 -3230 0
-89 -90 3230 0
-89 3228 3230 0
89 90 3230 0
89 -3228 3230 0
-3227 3230 0
-197 198 249 -250 -3231 0
-197 -198 -249 -250 -3231 0
-198 249 3231 0
198 -249 3231 0
197 3231 0
250 3231 0
197 -198 249 250 -3232 0
-197 198 249 -250 -3232 0
-197 -198 3232 0
-197 250 3232 0
197 198 3232 0
197 -250 3232 0
-249 3232 0
-3619 3620 3621 3622 -3233 0
3619 -3620 -3621 3622 -3233 0
-3619 -3620 3233 0
-3619 -3621 3233 0
3619 3620 3233 0
3619 3621 3233 0
-3622 3233 0
3619 -3620 -3621 3622 -3234 0
-3619 -3620 -3621 -3622 -3234 0
-3619 3622 3234 0
3619 -3622 3234 0
3620 3234 0
3621 3234 0
3233 3234 -3235 0
3233 -3234 -3235 0
-3233 3235 0
3233 -3234 -3236 0
-3233 -3234 -3236 0
3234 3236 0
-3623 3624 3625 3626 -3237 0
3623 -3624 -3625 3626 -3237 0
-3623 -3624 3237 0
-3623 -3625 3237 0
3623 3624 3237 0
3623 3625 3237 0
-3626 3237 0
3623 -3624 -3625 3626 -3238 0
-3623 -3624 -3625 -3626 -3238 0
-3623 3626 3238 0
3623 -3626 3238 0
3624 3238 0
3625 3238 0
3237 3238 -3239 0
3237 -3238 -3239 0
-3237 3239 0
3237 -3238 -3240 0
-3237 -3238 -3240 0
3238 3240 0
199 -200 3535 3536 -3241 0
-199 200 -3535 3536 -3241 0
-199 -200 3241 0
-199 3535 3241 0
199 200 3241 0
199 -3535 3241 0
-3536 3241 0
-199 200 -3535 3536 -3242 0
-199 -200 -3535 -3536 -3242 0
-200 3536 3242 0
200 -3536 3242 0
199 3242 0
3535 3242 0
3241 3242 -3243 0
3241 -3242 -3243 0
-3241 3243 0
3241 -3242 -3244 0
-3241 -3242 -3244 0
3242 3244 0
-3535 3536 3627 3628 -3245 0
3535 -3536 -3627 3628 -3245 0
-3535 -3536 3245 0
-3535 -3627 3245 0
3535 3536 3245 0
3535 3627 3245 0
-3628 3245 0
3535 -3536 -3627 3628 -3246 0
-3535 -3536 -3627 -3628 -3246 0
-3535 3628 3246 0
3535 -3628 3246 0
3536 3246 0
3627 3246 0
3245 3246 -3247 0
3245 -3246 -3247 0
-3245 3247 0
3245 -3246 -3248 0
-3245 -3246 -3248 0
3246 3248 0
-3629 3630 3631 3632 -3249 0
3629 -3630 -3631 3632 -3249 0
-3629 -3630 3249 0
-3629 -3631 3249 0
3629 3630 3249 0
3629 3631 3249 0
-3632 3249 0
3629 -3630 -3631 3632 -3250 0
-3629 -3630 -3631 -3632 -3250 0
-3629 3632 3250 0
3629 -3632 3250 0
3630 3250 0
3631 3250 0
3249 3250 -3251 0
3249 -3250 -3251 0
-3249 3251 0
3249 -3250 -3252 0
-3249 -3250 -3252 0
3250 3252 0
3253 0
3254 0
237 238 -3255 0
-237 238 -3255 0
-238 3255 0
-237 238 -3256 0
-237 -238 -3256 0
237 3256 0
3257 0
3258 0
-3633 3634 3635 3636 -3259 0
3633 -3634 -3635 3636 -3259 0
-3633 -3634 3259 0
-3633 -3635 3259 0
3633 3634 3259 0
3633 3635 3259 0
-3636 3259 0
3633 -3634 -3635 3636 -3260 0
-3633 -3634 -3635 -3636 -3260 0
-3633 3636 3260 0
3633 -3636 3260 0
3634 3260 0
3635 3260 0
3259 3260 -3261 0
3259 -3260 -3261 0
-3259 3261 0
3259 -3260 -3262 0
-3259 -3260 -3262 0
3260 3262 0
153 -154 3637 3638 -3263 0
-153 154 -3637 3638 -3263 0
-153 -154 3263 0
-153 3637 3263 0
153 154 3263 0
153 -3637 3263 0
-3638 3263 0
-153 154 -3637 3638 -3264 0
-153 -154 -3637 -3638 -3264 0
-154 3638 3264 0
154 -3638 3264 0
153 3264 0
3637 3264 0
-149 150 -3263 3264 -3265 0
-149 -150 -3263 -3264 -3265 0
-150 3264 3265 0
150 -3264 3265 0
149 3265 0
3263 3265 0
149 -150 3263 3264 -3266 0
-149 150 -3263 3264 -3266 0
-149 -150 3266 0
-149 3263 3266 0
149 150 3266 0
149 -3263 3266 0
-3264 3266 0
-3639 3640 3641 3642 -3267 0
3639 -3640 -3641 3642 -3267 0
-3639 -3640 3267 0
-3639 -3641 3267 0
3639 3640 3267 0
3639 3641 3267 0
-3642 3267 0
3639 -3640 -3641 3642 -3268 0
-3639 -3640 -3641 -3642 -3268 0
-3639 3642 3268 0
3639 -3642 3268 0
3640 3268 0
3641 3268 0
3267 3268 -3269 0
3267 -3268 -3269 0
-3267 3269 0
3267 -3268 -3270 0
-3267 -3268 -3270 0
3268 3270 0
-3643 3644 3645 3646 -3271 0
3643 -3644 -3645 3646 -3271 0
-3643 -3644 3271 0
-3643 -3645 3271 0
3643 3644 3271 0
3643 3645 3271 0
-3646 3271 0
3643 -3644 -3645 3646 -3272 0
-3643 -3644 -3645 -3646 -3272 0
-3643 3646 3272 0
3643 -3646 3272 0
3644 3272 0
3645 3272 0
3271 3272 -3273 0
3271 -3272 -3273 0
-3271 3273 0
3271 -3272 -3274 0
-3271 -3272 -3274 0
3272 3274 0
-3647 3648 3649 3650 -3275 0
3647 -3648 -3649 3650 -3275 0
-3647 -3648 3275 0
-3647 -3649 3275 0
3647 3648 3275 0
3647 3649 3275 0
-3650 3275 0
3647 -3648 -3649 3650 -3276 0
-3647 -3648 -3649 -3650 -3276 0
-3647 3650 3276 0
3647 -3650 3276 0
3648 3276 0
3649 3276 0
3275 3276 -3277 0
3275 -3276 -3277 0
-3275 3277 0
3275 -3276 -3278 0
-3275 -3276 -3278 0
3276 3278 0
-3651 3652 3653 3654 -3279 0
3651 -3652 -3653 3654 -3279 0
-3651 -3652 3279 0
-3651 -3653 3279 0
3651 3652 3279 0
3651 3653 3279 0
-3654 3279 0
3651 -3652 -3653 3654 -3280 0
-3651 -3652 -3653 -3654 -3280 0
-3651 3654 3280 0
3651 -3654 3280 0
3652 3280 0
3653 3280 0
3279 3280 -3281 0
3279 -3280 -3281 0
-3279 3281 0
3279 -3280 -3282 0
-3279 -3280 -3282 0
3280 3282 0
-3655 3656 3657 3658 -3283 0
3655 -3656 -3657 3658 -3283 0
-3655 -3656 3283 0
-3655 -3657 3283 0
3655 3656 3283 0
3655 3657 3283 0
-3658 3283 0
3655 -3656 -3657 3658 -3284 0
-3655 -3656 -3657 -3658 -3284 0
-3655 3658 3284 0
3655 -3658 3284 0
3656 3284 0
3657 3284 0
3283 3284 -3285 0
3283 -3284 -3285 0
-3283 3285 0
3283 -3284 -3286 0
-3283 -3284 -3286 0
3284 3286 0
-3659 3660 3661 3662 -3287 0
3659 -3660 -3661 3662 -3287 0
-3659 -3660 3287 0
-3659 -3661 3287 0
3659 3660 3287 0
3659 3661 3287 0
-3662 3287 0
3659 -3660 -3661 3662 -3288 0
-3659 -3660 -3661 -3662 -3288 0
-3659 3662 3288 0
3659 -3662 3288 0
3660 3288 0
3661 3288 0
3287 3288 -3289 0
3287 -3288 -3289 0
-3287 3289 0
3287 -3288 -3290 0
-3287 -3288 -3290 0
3288 3290 0
-3663 3664 3665 3666 -3291 0
3663 -3664 -3665 3666 -3291 0
-3663 -3664 3291 0
-3663 -3665 3291 0
3663 3664 3291 0
3663 3665 3291 0
-3666 3291 0
3663 -3664 -3665 3666 -3292 0
-3663 -3664 -3665 -3666 -3292 0
-3663 3666 3292 0
3663 -3666 3292 0
3664 3292 0
3665 3292 0
3291 3292 -3293 0
3291 -3292 -3293 0
-3291 3293 0
3291 -3292 -3294 0
-3291 -3292 -3294 0
3292 3294 0
-3667 3668 3669 3670 -3295 0
3667 -3668 -3669 3670 -3295 0
-3667 -3668 3295 0
-3667 -3669 3295 0
3667 3668 3295 0
3667 3669 3295 0
-3670 3295 0
3667 -3668 -3669 3670 -3296 0
-3667 -3668 -3669 -3670 -3296 0
-3667 3670 3296 0
3667 -3670 3296 0
3668 3296 0
3669 3296 0
3295 3296 -3297 0
3295 -3296 -3297 0
-3295 3297 0
3295 -3296 -3298 0
-3295 -3296 -3298 0
3296 3298 0
-3671 3672 3673 3674 -3299 0
3671 -3672 -3673 3674 -3299 0
-3671 -3672 3299 0
-3671 -3673 3299 0
3671 3672 3299 0
3671 3673 3299 0
-3674 3299 0
3671 -3672 -3673 3674 -3300 0
-3671 -3672 -3673 -3674 -3300 0
-3671 3674 3300 0
3671 -3674 3300 0
3672 3300 0
3673 3300 0
3299 3300 -3301 0
3299 -3300 -3301 0
-3299 3301 0
3299 -3300 -3302 0
-3299 -3300 -3302 0
3300 3302 0
1 -2 3675 3676 -3303 0
-1 2 -3675 3676 -3303 0
-1 -2 3303 0
-1 3675 3303 0
1 2 3303 0
1 -3675 3303 0
-3676 3303 0
-1 2 -3675 3676 -3304 0
-1 -2 -3675 -3676 -3304 0
-2 3676 3304 0
2 -3676 3304 0
1 3304 0
3675 3304 0
3303 3304 -3305 0
3303 -3304 -3305 0
-3303 3305 0
3303 -3304 -3306 0
-3303 -3304 -3306 0
3304 3306 0
-95 96 263 -264 -3307 0
-95 -96 -263 -264 -3307 0
-96 263 3307 0
96 -263 3307 0
95 3307 0
264 3307 0
95 -96 263 264 -3308 0
-95 96 263 -264 -3308 0
-95 -96 3308 0
-95 264 3308 0
95 96 3308 0
95 -264 3308 0
-263 3308 0
3309 0
3310 0
-3677 3678 3679 3680 -3311 0
3677 -3678 -3679 3680 -3311 0
-3677 -3678 3311 0
-3677 -3679 3311 0
3677 3678 3311 0
3677 3679 3311 0
-3680 3311 0
3677 -3678 -3679 3680 -3312 0
-3677 -3678 -3679 -3680 -3312 0
-3677 3680 3312 0
3677 -3680 3312 0
3678 3312 0
3679 3312 0
3311 3312 -3313 0
3311 -3312 -3313 0
-3311 3313 0
3311 -3312 -3314 0
-3311 -3312 -3314 0
3312 3314 0
-3681 3682 3683 3684 -3315 0
3681 -3682 -3683 3684 -3315 0
-3681 -3682 3315 0
-3681 -3683 3315 0
3681 3682 3315 0
3681 3683 3315 0
-3684 3315 0
3681 -3682 -3683 3684 -3316 0
-3681 -3682 -3683 -3684 -3316 0
-3681 3684 3316 0
3681 -3684 3316 0
3682 3316 0
3683 3316 0
3315 3316 -3317 0
3315 -3316 -3317 0
-3315 3317 0
3315 -3316 -3318 0
-3315 -3316 -3318 0
3316 3318 0
-3685 3686 3687 3688 -3319 0
3685 -3686 -3687 3688 -3319 0
-3685 -3686 3319 0
-3685 -3687 3319 0
3685 3686 3319 0
3685 3687 3319 0
-3688 3319 0
3685 -3686 -3687 3688 -3320 0
-3685 -3686 -3687 -3688 -3320 0
-3685 3688 3320 0
3685 -3688 3320 0
3686 3320 0
3687 3320 0
3319 3320 -3321 0
3319 -3320 -3321 0
-3319 3321 0
3319 -3320 -3322 0
-3319 -3320 -3322 0
3320 3322 0
-3689 3690 3691 3692 -3323 0
3689 -3690 -3691 3692 -3323 0
-3689 -3690 3323 0
-3689 -3691 3323 0
3689 3690 3323 0
3689 3691 3323 0
-3692 3323 0
3689 -3690 -3691 3692 -3324 0
-3689 -3690 -3691 -3692 -3324 0
-3689 3692 3324 0
3689 -3692 3324 0
3690 3324 0
3691 3324 0
3323 3324 -3325 0
3323 -3324 -3325 0
-3323 3325 0
3323 -3324 -3326 0
-3323 -3324 -3326 0
3324 3326 0
-3693 3694 3695 3696 -3327 0
3693 -3694 -3695 3696 -3327 0
-3693 -3694 3327 0
-3693 -3695 3327 0
3693 3694 3327 0
3693 3695 3327 0
-3696 3327 0
3693 -3694 -3695 3696 -3328 0
-3693 -3694 -3695 -3696 -3328 0
-3693 3696 3328 0
3693 -3696 3328 0
3694 3328 0
3695 3328 0
3327 3328 -3329 0
3327 -3328 -3329 0
-3327 3329 0
3327 -3328 -3330 0
-3327 -3328 -3330 0
3328 3330 0
-3697 3698 3699 3700 -3331 0
3697 -3698 -3699 3700 -3331 0
-3697 -3698 3331 0
-3697 -3699 3331 0
3697 3698 3331 0
3697 3699 3331 0
-3700 3331 0
3697 -3698 -3699 3700 -3332 0
-3697 -3698 -3699 -3700 -3332 0
-3697 3700 3332 0
3697 -3700 3332 0
3698 3332 0
3699 3332 0
3331 3332 -3333 0
3331 -3332 -3333 0
-3331 3333 0
3331 -3332 -3334 0
-3331 -3332 -3334 0
3332 3334 0
-3701 3702 3703 3704 -3335 0
3701 -3702 -3703 3704 -3335 0
-3701 -3702 3335 0
-3701 -3703 3335 0
3701 3702 3335 0
3701 3703 3335 0
-3704 3335 0
3701 -3702 -3703 3704 -3336 0
-3701 -3702 -3703 -3704 -3336 0
-3701 3704 3336 0
3701 -3704 3336 0
3702 3336 0
3703 3336 0
3335 3336 -3337 0
3335 -3336 -3337 0
-3335 3337 0
3335 -3336 -3338 0
-3335 -3336 -3338 0
3336 3338 0
-3705 3706 3707 3708 -3339 0
3705 -3706 -3707 3708 -3339 0
-3705 -3706 3339 0
-3705 -3707 3339 0
3705 3706 3339 0
3705 3707 3339 0
-3708 3339 0
3705 -3706 -3707 3708 -3340 0
-3705 -3706 -3707 -3708 -3340 0
-3705 3708 3340 0
3705 -3708 3340 0
3706 3340 0
3707 3340 0
3339 3340 -3341 0
3339 -3340 -3341 0
-3339 3341 0
3339 -3340 -3342 0
-3339 -3340 -3342 0
3340 3342 0
-3709 3710 3711 3712 -3343 0
3709 -3710 -3711 3712 -3343 0
-3709 -3710 3343 0
-3709 -3711 3343 0
3709 3710 3343 0
3709 3711 3343 0
-3712 3343 0
3709 -3710 -3711 3712 -3344 0
-3709 -3710 -3711 -3712 -3344 0
-3709 3712 3344 0
3709 -3712 3344 0
3710 3344 0
3711 3344 0
3343 3344 -3345 0
3343 -3344 -3345 0
-3343 3345 0
3343 -3344 -3346 0
-3343 -3344 -3346 0
3344 3346 0
3347 0
3348 0
27 -28 109 110 -3349 0
-27 28 109 -110 -3349 0
-27 -28 3349 0
-27 110 3349 0
27 28 3349 0
27 -110 3349 0
-109 3349 0
-27 28 109 -110 -3350 0
-27 -28 -109 -110 -3350 0
-28 109 3350 0
28 -109 3350 0
27 3350 0
110 3350 0
111 -112 113 114 -3351 0
-111 112 113 -114 -3351 0
-111 -112 3351 0
-111 114 3351 0
111 112 3351 0
111 -114 3351 0
-113 3351 0
-111 112 113 -114 -3352 0
-111 -112 -113 -114 -3352 0
-112 113 3352 0
112 -113 3352 0
111 3352 0
114 3352 0
3349 -3350 -3351 3352 -3353 0
-3349 -3350 -3351 -3352 -3353 0
-3349 3352 3353 0
3349 -3352 3353 0
3350 3353 0
3351 3353 0
-3349 3350 3351 3352 -3354 0
3349 -3350 -3351 3352 -3354 0
-3349 -3350 3354 0
-3349 -3351 3354 0
3349 3350 3354 0
3349 3351 3354 0
-3352 3354 0
-3713 3714 3715 3716 -3355 0
3713 -3714 -3715 3716 -3355 0
-3713 -3714 3355 0
-3713 -3715 3355 0
3713 3714 3355 0
3713 3715 3355 0
-3716 3355 0
3713 -3714 -3715 3716 -3356 0
-3713 -3714 -3715 -3716 -3356 0
-3713 3716 3356 0
3713 -3716 3356 0
3714 3356 0
3715 3356 0
3355 3356 -3357 0
3355 -3356 -3357 0
-3355 3357 0
3355 -3356 -3358 0
-3355 -3356 -3358 0
3356 3358 0
1 -2 3717 3718 -3359 0
-1 2 -3717 3718 -3359 0
-1 -2 3359 0
-1 3717 3359 0
1 2 3359 0
1 -3717 3359 0
-3718 3359 0
-1 2 -3717 3718 -3360 0
-1 -2 -3717 -3718 -3360 0
-2 3718 3360 0
2 -3718 3360 0
1 3360 0
3717 3360 0
3359 3360 -3361 0
3359 -3360 -3361 0
-3359 3361 0
3359 -3360 -3362 0
-3359 -3360 -3362 0
3360 3362 0
-3719 3720 3721 3722 -3363 0
3719 -3720 -3721 3722 -3363 0
-3719 -3720 3363 0
-3719 -3721 3363 0
3719 3720 3363 0
3719 3721 3363 0
-3722 3363 0
3719 -3720 -3721 3722 -3364 0
-3719 -3720 -3721 -3722 -3364 0
-3719 3722 3364 0
3719 -3722 3364 0
3720 3364 0
3721 3364 0
3363 3364 -3365 0
3363 -3364 -3365 0
-3363 3365 0
3363 -3364 -3366 0
-3363 -3364 -3366 0
3364 3366 0
-3723 3724 3725 3726 -3367 0
3723 -3724 -3725 3726 -3367 0
-3723 -3724 3367 0
-3723 -3725 3367 0
3723 3724 3367 0
3723 3725 3367 0
-3726 3367 0
3723 -3724 -3725 3726 -3368 0
-3723 -3724 -3725 -3726 -3368 0
-3723 3726 3368 0
3723 -3726 3368 0
3724 3368 0
3725 3368 0
3367 3368 -3369 0
3367 -3368 -3369 0
-3367 3369 0
3367 -3368 -3370 0
-3367 -3368 -3370 0
3368 3370 0
-3727 3728 3729 3730 -3371 0
3727 -3728 -3729 3730 -3371 0
-3727 -3728 3371 0
-3727 -3729 3371 0
3727 3728 3371 0
3727 3729 3371 0
-3730 3371 0
3727 -3728 -3729 3730 -3372 0
-3727 -3728 -3729 -3730 -3372 0
-3727 3730 3372 0
3727 -3730 3372 0
3728 3372 0
3729 3372 0
3371 3372 -3373 0
3371 -3372 -3373 0
-3371 3373 0
3371 -3372 -3374 0
-3371 -3372 -3374 0
3372 3374 0
-3731 3732 3733 3734 -3375 0
3731 -3732 -3733 3734 -3375 0
-3731 -3732 3375 0
-3731 -3733 3375 0
3731 3732 3375 0
3731 3733 3375 0
-3734 3375 0
3731 -3732 -3733 3734 -3376 0
-3731 -3732 -3733 -3734 -3376 0
-3731 3734 3376 0
3731 -3734 3376 0
3732 3376 0
3733 3376 0
-3735 3736 3737 3738 -3377 0
3735 -3736 -3737 3738 -3377 0
-3735 -3736 3377 0
-3735 -3737 3377 0
3735 3736 3377 0
3735 3737 3377 0
-3738 3377 0
3735 -3736 -3737 3738 -3378 0
-3735 -3736 -3737 -3738 -3378 0
-3735 3738 3378 0
3735 -3738 3378 0
3736 3378 0
3737 3378 0
3375 -3376 -3377 3378 -3379 0
-3375 -3376 -3377 -3378 -3379 0
-3375 3378 3379 0
3375 -3378 3379 0
3376 3379 0
3377 3379 0
-3375 3376 3377 3378 -3380 0
3375 -3376 -3377 3378 -3380 0
-3375 -3376 3380 0
-3375 -3377 3380 0
3375 3376 3380 0
3375 3377 3380 0
-3378 3380 0
-3739 3740 3741 3742 -3381 0
3739 -3740 -3741 3742 -3381 0
-3739 -3740 3381 0
-3739 -3741 3381 0
3739 3740 3381 0
3739 3741 3381 0
-3742 3381 0
3739 -3740 -3741 3742 -3382 0
-3739 -3740 -3741 -3742 -3382 0
-3739 3742 3382 0
3739 -3742 3382 0
3740 3382 0
3741 3382 0
3381 3382 -3383 0
3381 -3382 -3383 0
-3381 3383 0
3381 -3382 -3384 0
-3381 -3382 -3384 0
3382 3384 0
-3743 3744 3745 3746 -3385 0
3743 -3744 -3745 3746 -3385 0
-3743 -3744 3385 0
-3743 -3745 3385 0
3743 3744 3385 0
3743 3745 3385 0
-3746 3385 0
3743 -3744 -3745 3746 -3386 0
-3743 -3744 -3745 -3746 -3386 0
-3743 3746 3386 0
3743 -3746 3386 0
3744 3386 0
3745 3386 0
3385 3386 -3387 0
3385 -3386 -3387 0
-3385 3387 0
3385 -3386 -3388 0
-3385 -3386 -3388 0
3386 3388 0
-3747 3748 3749 3750 -3389 0
3747 -3748 -3749 3750 -3389 0
-3747 -3748 3389 0
-3747 -3749 3389 0
3747 3748 3389 0
3747 3749 3389 0
-3750 3389 0
3747 -3748 -3749 3750 -3390 0
-3747 -3748 -3749 -3750 -3390 0
-3747 3750 3390 0
3747 -3750 3390 0
3748 3390 0
3749 3390 0
3389 3390 -3391 0
3389 -3390 -3391 0
-3389 3391 0
3389 -3390 -3392 0
-3389 -3390 -3392 0
3390 3392 0
-3751 3752 3753 3754 -3393 0
3751 -3752 -3753 3754 -3393 0
-3751 -3752 3393 0
-3751 -3753 3393 0
3751 3752 3393 0
3751 3753 3393 0
-3754 3393 0
3751 -3752 -3753 3754 -3394 0
-3751 -3752 -3753 -3754 -3394 0
-3751 3754 3394 0
3751 -3754 3394 0
3752 3394 0
3753 3394 0
3393 3394 -3395 0
3393 -3394 -3395 0
-3393 3395 0
3393 -3394 -3396 0
-3393 -3394 -3396 0
3394 3396 0
-235 236 -3375 3376 -3397 0
-235 -236 -3375 -3376 -3397 0
-236 3376 3397 0
236 -3376 3397 0
235 3397 0
3375 3397 0
235 -236 3375 3376 -3398 0
-235 236 -3375 3376 -3398 0
-235 -236 3398 0
-235 3375 3398 0
235 236 3398 0
235 -3375 3398 0
-3376 3398 0
-3755 3756 3757 3758 -3399 0
3755 -3756 -3757 3758 -3399 0
-3755 -3756 3399 0
-3755 -3757 3399 0
3755 3756 3399 0
3755 3757 3399 0
-3758 3399 0
3755 -3756 -3757 3758 -3400 0
-3755 -3756 -3757 -3758 -3400 0
-3755 3758 3400 0
3755 -3758 3400 0
3756 3400 0
3757 3400 0
3399 3400 -3401 0
3399 -3400 -3401 0
-3399 3401 0
3399 -3400 -3402 0
-3399 -3400 -3402 0
3400 3402 0
-3759 3760 3761 3762 -3403 0
3759 -3760 -3761 3762 -3403 0
-3759 -3760 3403 0
-3759 -3761 3403 0
3759 3760 3403 0
3759 3761 3403 0
-3762 3403 0
3759 -3760 -3761 3762 -3404 0
-3759 -3760 -3761 -3762 -3404 0
-3759 3762 3404 0
3759 -3762 3404 0
3760 3404 0
3761 3404 0
3403 3404 -3405 0
3403 -3404 -3405 0
-3403 3405 0
3403 -3404 -3406 0
-3403 -3404 -3406 0
3404 3406 0
-3763 3764 3765 3766 -3407 0
3763 -3764 -3765 3766 -3407 0
-3763 -3764 3407 0
-3763 -3765 3407 0
3763 3764 3407 0
3763 3765 3407 0
-3766 3407 0
3763 -3764 -3765 3766 -3408 0
-3763 -3764 -3765 -3766 -3408 0
-3763 3766 3408 0
3763 -3766 3408 0
3764 3408 0
3765 3408 0
3407 3408 -3409 0
3407 -3408 -3409 0
-3407 3409 0
3407 -3408 -3410 0
-3407 -3408 -3410 0
3408 3410 0
-3767 3768 3769 3770 -3411 0
3767 -3768 -3769 3770 -3411 0
-3767 -3768 3411 0
-3767 -3769 3411 0
3767 3768 3411 0
3767 3769 3411 0
-3770 3411 0
3767 -3768 -3769 3770 -3412 0
-3767 -3768 -3769 -3770 -3412 0
-3767 3770 3412 0
3767 -3770 3412 0
3768 3412 0
3769 3412 0
3411 3412 -3413 0
3411 -3412 -3413 0
-3411 3413 0
3411 -3412 -3414 0
-3411 -3412 -3414 0
3412 3414 0
-3771 3772 3773 3774 -3415 0
3771 -3772 -3773 3774 -3415 0
-3771 -3772 3415 0
-3771 -3773 3415 0
3771 3772 3415 0
3771 3773 3415 0
-3774 3415 0
3771 -3772 -3773 3774 -3416 0
-3771 -3772 -3773 -3774 -3416 0
-3771 3774 3416 0
3771 -3774 3416 0
3772 3416 0
3773 3416 0
3415 3416 -3417 0
3415 -3416 -3417 0
-3415 3417 0
3415 -3416 -3418 0
-3415 -3416 -3418 0
3416 3418 0
149 -150 151 152 -3419 0
-149 150 151 -152 -3419 0
-149 -150 3419 0
-149 152 3419 0
149 150 3419 0
149 -152 3419 0
-151 3419 0
-149 150 151 -152 -3420 0
-149 -150 -151 -152 -3420 0
-150 151 3420 0
150 -151 3420 0
149 3420 0
152 3420 0
153 -154 181 182 -3421 0
-153 154 181 -182 -3421 0
-153 -154 3421 0
-153 182 3421 0
153 154 3421 0
153 -182 3421 0
-181 3421 0
-153 154 181 -182 -3422 0
-153 -154 -181 -182 -3422 0
-154 181 3422 0
154 -181 3422 0
153 3422 0
182 3422 0
3419 -3420 -3421 3422 -3423 0
-3419 -3420 -3421 -3422 -3423 0
-3419 3422 3423 0
3419 -3422 3423 0
3420 3423 0
3421 3423 0
-3419 3420 3421 3422 -3424 0
3419 -3420 -3421 3422 -3424 0
-3419 -3420 3424 0
-3419 -3421 3424 0
3419 3420 3424 0
3419 3421 3424 0
-3422 3424 0
187 188 -3425 0
-187 188 -3425 0
-188 3425 0
-187 188 -3426 0
-187 -188 -3426 0
187 3426 0
-3775 3776 3777 3778 -3427 0
3775 -3776 -3777 3778 -3427 0
-3775 -3776 3427 0
-3775 -3777 3427 0
3775 3776 3427 0
3775 3777 3427 0
-3778 3427 0
3775 -3776 -3777 3778 -3428 0
-3775 -3776 -3777 -3778 -3428 0
-3775 3778 3428 0
3775 -3778 3428 0
3776 3428 0
3777 3428 0
3427 3428 -3429 0
3427 -3428 -3429 0
-3427 3429 0
3427 -3428 -3430 0
-3427 -3428 -3430 0
3428 3430 0
-3779 3780 3781 3782 -3431 0
3779 -3780 -3781 3782 -3431 0
-3779 -3780 3431 0
-3779 -3781 3431 0
3779 3780 3431 0
3779 3781 3431 0
-3782 3431 0
3779 -3780 -3781 3782 -3432 0
-3779 -3780 -3781 -3782 -3432 0
-3779 3782 3432 0
3779 -3782 3432 0
3780 3432 0
3781 3432 0
3431 3432 -3433 0
3431 -3432 -3433 0
-3431 3433 0
3431 -3432 -3434 0
-3431 -3432 -3434 0
3432 3434 0
-3783 3784 3785 3786 -3435 0
3783 -3784 -3785 3786 -3435 0
-3783 -3784 3435 0
-3783 -3785 3435 0
3783 3784 3435 0
3783 3785 3435 0
-3786 3435 0
3783 -3784 -3785 3786 -3436 0
-3783 -3784 -3785 -3786 -3436 0
-3783 3786 3436 0
3783 -3786 3436 0
3784 3436 0
3785 3436 0
3435 3436 -3437 0
3435 -3436 -3437 0
-3435 3437 0
3435 -3436 -3438 0
-3435 -3436 -3438 0
3436 3438 0
-3787 3788 3789 3790 -3439 0
3787 -3788 -3789 3790 -3439 0
-3787 -3788 3439 0
-3787 -3789 3439 0
3787 3788 3439 0
3787 3789 3439 0
-3790 3439 0
3787 -3788 -3789 3790 -3440 0
-3787 -3788 -3789 -3790 -3440 0
-3787 3790 3440 0
3787 -3790 3440 0
3788 3440 0
3789 3440 0
3439 3440 -3441 0
3439 -3440 -3441 0
-3439 3441 0
3439 -3440 -3442 0
-3439 -3440 -3442 0
3440 3442 0
-231 232 -3375 3376 -3443 0
-231 -232 -3375 -3376 -3443 0
-232 3376 3443 0
232 -3376 3443 0
231 3443 0
3375 3443 0
231 -232 3375 3376 -3444 0
-231 232 -3375 3376 -3444 0
-231 -232 3444 0
-231 3375 3444 0
231 232 3444 0
231 -3375 3444 0
-3376 3444 0
-3791 3792 3793 3794 -3445 0
3791 -3792 -3793 3794 -3445 0
-3791 -3792 3445 0
-3791 -3793 3445 0
3791 3792 3445 0
3791 3793 3445 0
-3794 3445 0
3791 -3792 -3793 3794 -3446 0
-3791 -3792 -3793 -3794 -3446 0
-3791 3794 3446 0
3791 -3794 3446 0
3792 3446 0
3793 3446 0
3445 3446 -3447 0
3445 -3446 -3447 0
-3445 3447 0
3445 -3446 -3448 0
-3445 -3446 -3448 0
3446 3448 0
-77 78 177 -178 -3449 0
-77 -78 -177 -178 -3449 0
-78 177 3449 0
78 -177 3449 0
77 3449 0
178 3449 0
77 -78 177 178 -3450 0
-77 78 177 -178 -3450 0
-77 -78 3450 0
-77 178 3450 0
77 78 3450 0
77 -178 3450 0
-177 3450 0
-3795 3796 3797 3798 -3451 0
3795 -3796 -3797 3798 -3451 0
-3795 -3796 3451 0
-3795 -3797 3451 0
3795 3796 3451 0
3795 3797 3451 0
-3798 3451 0
3795 -3796 -3797 3798 -3452 0
-3795 -3796 -3797 -3798 -3452 0
-3795 3798 3452 0
3795 -3798 3452 0
3796 3452 0
3797 3452 0
3451 3452 -3453 0
3451 -3452 -3453 0
-3451 3453 0
3451 -3452 -3454 0
-3451 -3452 -3454 0
3452 3454 0
-3737 3738 3799 3800 -3455 0
3737 -3738 -3799 3800 -3455 0
-3737 -3738 3455 0
-3737 -3799 3455 0
3737 3738 3455 0
3737 3799 3455 0
-3800 3455 0
3737 -3738 -3799 3800 -3456 0
-3737 -3738 -3799 -3800 -3456 0
-3737 3800 3456 0
3737 -3800 3456 0
3738 3456 0
3799 3456 0
3455 3456 -3457 0
3455 -3456 -3457 0
-3455 3457 0
3455 -3456 -3458 0
-3455 -3456 -3458 0
3456 3458 0
-3801 3802 3803 3804 -3459 0
3801 -3802 -3803 3804 -3459 0
-3801 -3802 3459 0
-3801 -3803 3459 0
3801 3802 3459 0
3801 3803 3459 0
-3804 3459 0
3801 -3802 -3803 3804 -3460 0
-3801 -3802 -3803 -3804 -3460 0
-3801 3804 3460 0
3801 -3804 3460 0
3802 3460 0
3803 3460 0
3459 3460 -3461 0
3459 -3460 -3461 0
-3459 3461 0
3459 -3460 -3462 0
-3459 -3460 -3462 0
3460 3462 0
-3805 3806 3807 3808 -3463 0
3805 -3806 -3807 3808 -3463 0
-3805 -3806 3463 0
-3805 -3807 3463 0
3805 3806 3463 0
3805 3807 3463 0
-3808 3463 0
3805 -3806 -3807 3808 -3464 0
-3805 -3806 -3807 -3808 -3464 0
-3805 3808 3464 0
3805 -3808 3464 0
3806 3464 0
3807 3464 0
3463 3464 -3465 0
3463 -3464 -3465 0
-3463 3465 0
3463 -3464 -3466 0
-3463 -3464 -3466 0
3464 3466 0
-3809 3810 3811 3812 -3467 0
3809 -3810 -3811 3812 -3467 0
-3809 -3810 3467 0
-3809 -3811 3467 0
3809 3810 3467 0
3809 3811 3467 0
-3812 3467 0
3809 -3810 -3811 3812 -3468 0
-3809 -3810 -3811 -3812 -3468 0
-3809 3812 3468 0
3809 -3812 3468 0
3810 3468 0
3811 3468 0
3467 3468 -3469 0
3467 -3468 -3469 0
-3467 3469 0
3467 -3468 -3470 0
-3467 -3468 -3470 0
3468 3470 0
-3813 3814 3815 3816 -3471 0
3813 -3814 -3815 3816 -3471 0
-3813 -3814 3471 0
-3813 -3815 3471 0
3813 3814 3471 0
3813 3815 3471 0
-3816 3471 0
3813 -3814 -3815 3816 -3472 0
-3813 -3814 -3815 -3816 -3472 0
-3813 3816 3472 0
3813 -3816 3472 0
3814 3472 0
3815 3472 0
3471 3472 -3473 0
3471 -3472 -3473 0
-3471 3473 0
3471 -3472 -3474 0
-3471 -3472 -3474 0
3472 3474 0
-3817 3818 3819 3820 -3475 0
3817 -3818 -3819 3820 -3475 0
-3817 -3818 3475 0
-3817 -3819 3475 0
3817 3818 3475 0
3817 3819 3475 0
-3820 3475 0
3817 -3818 -3819 3820 -3476 0
-3817 -3818 -3819 -3820 -3476 0
-3817 3820 3476 0
3817 -3820 3476 0
3818 3476 0
3819 3476 0
3475 3476 -3477 0
3475 -3476 -3477 0
-3475 3477 0
3475 -3476 -3478 0
-3475 -3476 -3478 0
3476 3478 0
-3821 3822 3823 3824 -3479 0
3821 -3822 -3823 3824 -3479 0
-3821 -3822 3479 0
-3821 -3823 3479 0
3821 3822 3479 0
3821 3823 3479 0
-3824 3479 0
3821 -3822 -3823 3824 -3480 0
-3821 -3822 -3823 -3824 -3480 0
-3821 3824 3480 0
3821 -3824 3480 0
3822 3480 0
3823 3480 0
3479 3480 -3481 0
3479 -3480 -3481 0
-3479 3481 0
3479 -3480 -3482 0
-3479 -3480 -3482 0
3480 3482 0
-3739 3740 3825 3826 -3483 0
3739 -3740 -3825 3826 -3483 0
-3739 -3740 3483 0
-3739 -3825 3483 0
3739 3740 3483 0
3739 3825 3483 0
-3826 3483 0
3739 -3740 -3825 3826 -3484 0
-3739 -3740 -3825 -3826 -3484 0
-3739 3826 3484 0
3739 -3826 3484 0
3740 3484 0
3825 3484 0
3483 3484 -3485 0
3483 -3484 -3485 0
-3483 3485 0
3483 -3484 -3486 0
-3483 -3484 -3486 0
3484 3486 0
-3827 3828 3829 3830 -3487 0
3827 -3828 -3829 3830 -3487 0
-3827 -3828 3487 0
-3827 -3829 3487 0
3827 3828 3487 0
3827 3829 3487 0
-3830 3487 0
3827 -3828 -3829 3830 -3488 0
-3827 -3828 -3829 -3830 -3488 0
-3827 3830 3488 0
3827 -3830 3488 0
3828 3488 0
3829 3488 0
65 -66 91 92 -3489 0
-65 66 91 -92 -3489 0
-65 -66 3489 0
-65 92 3489 0
65 66 3489 0
65 -92 3489 0
-91 3489 0
-65 66 91 -92 -3490 0
-65 -66 -91 -92 -3490 0
-66 91 3490 0
66 -91 3490 0
65 3490 0
92 3490 0
3487 -3488 -3489 3490 -3491 0
-3487 -3488 -3489 -3490 -3491 0
-3487 3490 3491 0
3487 -3490 3491 0
3488 3491 0
3489 3491 0
-3487 3488 3489 3490 -3492 0
3487 -3488 -3489 3490 -3492 0
-3487 -3488 3492 0
-3487 -3489 3492 0
3487 3488 3492 0
3487 3489 3492 0
-3490 3492 0
-101 102 103 -104 -3493 0
-101 -102 -103 -104 -3493 0
-102 103 3493 0
102 -103 3493 0
101 3493 0
104 3493 0
101 -102 103 104 -3494 0
-101 102 103 -104 -3494 0
-101 -102 3494 0
-101 104 3494 0
101 102 3494 0
101 -104 3494 0
-103 3494 0
3495 0
3496 0
-97 98 99 -100 -3497 0
-97 -98 -99 -100 -3497 0
-98 99 3497 0
98 -99 3497 0
97 3497 0
100 3497 0
97 -98 99 100 -3498 0
-97 98 99 -100 -3498 0
-97 -98 3498 0
-97 100 3498 0
97 98 3498 0
97 -100 3498 0
-99 3498 0
3499 0
3500 0
-101 102 103 -104 -3501 0
-101 -102 -103 -104 -3501 0
-102 103 3501 0
102 -103 3501 0
101 3501 0
104 3501 0
101 -102 103 104 -3502 0
-101 102 103 -104 -3502 0
-101 -102 3502 0
-101 104 3502 0
101 102 3502 0
101 -104 3502 0
-103 3502 0
3503 0
3504 0
3505 0
3506 0
-3831 3832 3833 3834 -3507 0
3831 -3832 -3833 3834 -3507 0
-3831 -3832 3507 0
-3831 -3833 3507 0
3831 3832 3507 0
3831 3833 3507 0
-3834 3507 0
3831 -3832 -3833 3834 -3508 0
-3831 -3832 -3833 -3834 -3508 0
-3831 3834 3508 0
3831 -3834 3508 0
3832 3508 0
3833 3508 0
3507 3508 -3509 0
3507 -3508 -3509 0
-3507 3509 0
3507 -3508 -3510 0
-3507 -3508 -3510 0
3508 3510 0
-3835 3836 3837 3838 -3511 0
3835 -3836 -3837 3838 -3511 0
-3835 -3836 3511 0
-3835 -3837 3511 0
3835 3836 3511 0
3835 3837 3511 0
-3838 3511 0
3835 -3836 -3837 3838 -3512 0
-3835 -3836 -3837 -3838 -3512 0
-3835 3838 3512 0
3835 -3838 3512 0
3836 3512 0
3837 3512 0
3511 3512 -3513 0
3511 -3512 -3513 0
-3511 3513 0
3511 -3512 -3514 0
-3511 -3512 -3514 0
3512 3514 0
-3839 3840 3841 3842 -3515 0
3839 -3840 -3841 3842 -3515 0
-3839 -3840 3515 0
-3839 -3841 3515 0
3839 3840 3515 0
3839 3841 3515 0
-3842 3515 0
3839 -3840 -3841 3842 -3516 0
-3839 -3840 -3841 -3842 -3516 0
-3839 3842 3516 0
3839 -3842 3516 0
3840 3516 0
3841 3516 0
3515 3516 -3517 0
3515 -3516 -3517 0
-3515 3517 0
3515 -3516 -3518 0
-3515 -3516 -3518 0
3516 3518 0
-3843 3844 3845 3846 -3519 0
3843 -3844 -3845 3846 -3519 0
-3843 -3844 3519 0
-3843 -3845 3519 0
3843 3844 3519 0
3843 3845 3519 0
-3846 3519 0
3843 -3844 -3845 3846 -3520 0
-3843 -3844 -3845 -3846 -3520 0
-3843 3846 3520 0
3843 -3846 3520 0
3844 3520 0
3845 3520 0
3519 3520 -3521 0
3519 -3520 -3521 0
-3519 3521 0
3519 -3520 -3522 0
-3519 -3520 -3522 0
3520 3522 0
-3847 3848 3849 3850 -3523 0
3847 -3848 -3849 3850 -3523 0
-3847 -3848 3523 0
-3847 -3849 3523 0
3847 3848 3523 0
3847 3849 3523 0
-3850 3523 0
3847 -3848 -3849 3850 -3524 0
-3847 -3848 -3849 -3850 -3524 0
-3847 3850 3524 0
3847 -3850 3524 0
3848 3524 0
3849 3524 0
3523 3524 -3525 0
3523 -3524 -3525 0
-3523 3525 0
3523 -3524 -3526 0
-3523 -3524 -3526 0
3524 3526 0
-3851 3852 3853 3854 -3527 0
3851 -3852 -3853 3854 -3527 0
-3851 -3852 3527 0
-3851 -3853 3527 0
3851 3852 3527 0
3851 3853 3527 0
-3854 3527 0
3851 -3852 -3853 3854 -3528 0
-3851 -3852 -3853 -3854 -3528 0
-3851 3854 3528 0
3851 -3854 3528 0
3852 3528 0
3853 3528 0
3527 3528 -3529 0
3527 -3528 -3529 0
-3527 3529 0
3527 -3528 -3530 0
-3527 -3528 -3530 0
3528 3530 0
121 -122 269 270 -3531 0
-121 122 269 -270 -3531 0
-121 -122 3531 0
-121 270 3531 0
121 122 3531 0
121 -270 3531 0
-269 3531 0
-121 122 269 -270 -3532 0
-121 -122 -269 -270 -3532 0
-122 269 3532 0
122 -269 3532 0
121 3532 0
270 3532 0
-257 258 -3531 3532 -3533 0
-257 -258 -3531 -3532 -3533 0
-258 3532 3533 0
258 -3532 3533 0
257 3533 0
3531 3533 0
257 -258 3531 3532 -3534 0
-257 258 -3531 3532 -3534 0
-257 -258 3534 0
-257 3531 3534 0
257 258 3534 0
257 -3531 3534 0
-3532 3534 0
-3855 3856 3857 3858 -3535 0
3855 -3856 -3857 3858 -3535 0
-3855 -3856 3535 0
-3855 -3857 3535 0
3855 3856 3535 0
3855 3857 3535 0
-3858 3535 0
3855 -3856 -3857 3858 -3536 0
-3855 -3856 -3857 -3858 -3536 0
-3855 3858 3536 0
3855 -3858 3536 0
3856 3536 0
3857 3536 0
-129 130 -3535 3536 -3537 0
-129 -130 -3535 -3536 -3537 0
-130 3536 3537 0
130 -3536 3537 0
129 3537 0
3535 3537 0
129 -130 3535 3536 -3538 0
-129 130 -3535 3536 -3538 0
-129 -130 3538 0
-129 3535 3538 0
129 130 3538 0
129 -3535 3538 0
-3536 3538 0
121 -122 3859 3860 -3539 0
-121 122 -3859 3860 -3539 0
-121 -122 3539 0
-121 3859 3539 0
121 122 3539 0
121 -3859 3539 0
-3860 3539 0
-121 122 -3859 3860 -3540 0
-121 -122 -3859 -3860 -3540 0
-122 3860 3540 0
122 -3860 3540 0
121 3540 0
3859 3540 0
3539 3540 -3541 0
3539 -3540 -3541 0
-3539 3541 0
3539 -3540 -3542 0
-3539 -3540 -3542 0
3540 3542 0
-3547 3548 3861 3862 -3543 0
3547 -3548 -3861 3862 -3543 0
-3547 -3548 3543 0
-3547 -3861 3543 0
3547 3548 3543 0
3547 3861 3543 0
-3862 3543 0
3547 -3548 -3861 3862 -3544 0
-3547 -3548 -3861 -3862 -3544 0
-3547 3862 3544 0
3547 -3862 3544 0
3548 3544 0
3861 3544 0
3543 3544 -3545 0
3543 -3544 -3545 0
-3543 3545 0
3543 -3544 -3546 0
-3543 -3544 -3546 0
3544 3546 0
-3863 3864 3865 3866 -3547 0
3863 -3864 -3865 3866 -3547 0
-3863 -3864 3547 0
-3863 -3865 3547 0
3863 3864 3547 0
3863 3865 3547 0
-3866 3547 0
3863 -3864 -3865 3866 -3548 0
-3863 -3864 -3865 -3866 -3548 0
-3863 3866 3548 0
3863 -3866 3548 0
3864 3548 0
3865 3548 0
-3867 3868 3553 3554 -3549 0
3867 -3868 -3553 3554 -3549 0
-3867 -3868 3549 0
-3867 -3553 3549 0
3867 3868 3549 0
3867 3553 3549 0
-3554 3549 0
3867 -3868 -3553 3554 -3550 0
-3867 -3868 -3553 -3554 -3550 0
-3867 3554 3550 0
3867 -3554 3550 0
3868 3550 0
3553 3550 0
3547 -3548 -3549 3550 -3551 0
-3547 -3548 -3549 -3550 -3551 0
-3547 3550 3551 0
3547 -3550 3551 0
3548 3551 0
3549 3551 0
-3547 3548 3549 3550 -3552 0
3547 -3548 -3549 3550 -3552 0
-3547 -3548 3552 0
-3547 -3549 3552 0
3547 3548 3552 0
3547 3549 3552 0
-3550 3552 0
-3869 3870 3871 3872 -3553 0
3869 -3870 -3871 3872 -3553 0
-3869 -3870 3553 0
-3869 -3871 3553 0
3869 3870 3553 0
3869 3871 3553 0
-3872 3553 0
3869 -3870 -3871 3872 -3554 0
-3869 -3870 -3871 -3872 -3554 0
-3869 3872 3554 0
3869 -3872 3554 0
3870 3554 0
3871 3554 0
3547 -3548 -3553 3554 -3555 0
-3547 -3548 -3553 -3554 -3555 0
-3547 3554 3555 0
3547 -3554 3555 0
3548 3555 0
3553 3555 0
-3547 3548 3553 3554 -3556 0
3547 -3548 -3553 3554 -3556 0
-3547 -3548 3556 0
-3547 -3553 3556 0
3547 3548 3556 0
3547 3553 3556 0
-3554 3556 0
-3553 3554 3873 3874 -3557 0
3553 -3554 -3873 3874 -3557 0
-3553 -3554 3557 0
-3553 -3873 3557 0
3553 3554 3557 0
3553 3873 3557 0
-3874 3557 0
3553 -3554 -3873 3874 -3558 0
-3553 -3554 -3873 -3874 -3558 0
-3553 3874 3558 0
3553 -3874 3558 0
3554 3558 0
3873 3558 0
3557 3558 -3559 0
3557 -3558 -3559 0
-3557 3559 0
3557 -3558 -3560 0
-3557 -3558 -3560 0
3558 3560 0
-3875 3876 3877 3878 -3561 0
3875 -3876 -3877 3878 -3561 0
-3875 -3876 3561 0
-3875 -3877 3561 0
3875 3876 3561 0
3875 3877 3561 0
-3878 3561 0
3875 -3876 -3877 3878 -3562 0
-3875 -3876 -3877 -3878 -3562 0
-3875 3878 3562 0
3875 -3878 3562 0
3876 3562 0
3877 3562 0
3561 3562 -3563 0
3561 -3562 -3563 0
-3561 3563 0
3561 -3562 -3564 0
-3561 -3562 -3564 0
3562 3564 0
-3879 3880 3881 3882 -3565 0
3879 -3880 -3881 3882 -3565 0
-3879 -3880 3565 0
-3879 -3881 3565 0
3879 3880 3565 0
3879 3881 3565 0
-3882 3565 0
3879 -3880 -3881 3882 -3566 0
-3879 -3880 -3881 -3882 -3566 0
-3879 3882 3566 0
3879 -3882 3566 0
3880 3566 0
3881 3566 0
3565 3566 -3567 0
3565 -3566 -3567 0
-3565 3567 0
3565 -3566 -3568 0
-3565 -3566 -3568 0
3566 3568 0
-3883 3884 3885 3886 -3569 0
3883 -3884 -3885 3886 -3569 0
-3883 -3884 3569 0
-3883 -3885 3569 0
3883 3884 3569 0
3883 3885 3569 0
-3886 3569 0
3883 -3884 -3885 3886 -3570 0
-3883 -3884 -3885 -3886 -3570 0
-3883 3886 3570 0
3883 -3886 3570 0
3884 3570 0
3885 3570 0
3569 3570 -3571 0
3569 -3570 -3571 0
-3569 3571 0
3569 -3570 -3572 0
-3569 -3570 -3572 0
3570 3572 0
3573 0
3574 0
3575 0
3576 0
3577 0
3578 0
3579 0
3580 0
3581 0
3582 0
-3887 3888 3889 3890 -3583 0
3887 -3888 -3889 3890 -3583 0
-3887 -3888 3583 0
-3887 -3889 3583 0
3887 3888 3583 0
3887 3889 3583 0
-3890 3583 0
3887 -3888 -3889 3890 -3584 0
-3887 -3888 -3889 -3890 -3584 0
-3887 3890 3584 0
3887 -3890 3584 0
3888 3584 0
3889 3584 0
3583 3584 -3585 0
3583 -3584 -3585 0
-3583 3585 0
3583 -3584 -3586 0
-3583 -3584 -3586 0
3584 3586 0
-227 228 239 -240 -3587 0
-227 -228 -239 -240 -3587 0
-228 239 3587 0
228 -239 3587 0
227 3587 0
240 3587 0
227 -228 239 240 -3588 0
-227 228 239 -240 -3588 0
-227 -228 3588 0
-227 240 3588 0
227 228 3588 0
227 -240 3588 0
-239 3588 0
-3891 3892 3893 3894 -3589 0
3891 -3892 -3893 3894 -3589 0
-3891 -3892 3589 0
-3891 -3893 3589 0
3891 3892 3589 0
3891 3893 3589 0
-3894 3589 0
3891 -3892 -3893 3894 -3590 0
-3891 -3892 -3893 -3894 -3590 0
-3891 3894 3590 0
3891 -3894 3590 0
3892 3590 0
3893 3590 0
3589 3590 -3591 0
3589 -3590 -3591 0
-3589 3591 0
3589 -3590 -3592 0
-3589 -3590 -3592 0
3590 3592 0
265 -266 3895 3896 -3593 0
-265 266 -3895 3896 -3593 0
-265 -266 3593 0
-265 3895 3593 0
265 266 3593 0
265 -3895 3593 0
-3896 3593 0
-265 266 -3895 3896 -3594 0
-265 -266 -3895 -3896 -3594 0
-266 3896 3594 0
266 -3896 3594 0
265 3594 0
3895 3594 0
3593 3594 -3595 0
3593 -3594 -3595 0
-3593 3595 0
3593 -3594 -3596 0
-3593 -3594 -3596 0
3594 3596 0
201 -202 203 204 -3597 0
-201 202 203 -204 -3597 0
-201 -202 3597 0
-201 204 3597 0
201 202 3597 0
201 -204 3597 0
-203 3597 0
-201 202 203 -204 -3598 0
-201 -202 -203 -204 -3598 0
-202 203 3598 0
202 -203 3598 0
201 3598 0
204 3598 0
-3263 3264 3897 3898 -3599 0
3263 -3264 -3897 3898 -3599 0
-3263 -3264 3599 0
-3263 -3897 3599 0
3263 3264 3599 0
3263 3897 3599 0
-3898 3599 0
3263 -3264 -3897 3898 -3600 0
-3263 -3264 -3897 -3898 -3600 0
-3263 3898 3600 0
3263 -3898 3600 0
3264 3600 0
3897 3600 0
3597 -3598 -3599 3600 -3601 0
-3597 -3598 -3599 -3600 -3601 0
-3597 3600 3601 0
3597 -3600 3601 0
3598 3601 0
3599 3601 0
-3597 3598 3599 3600 -3602 0
3597 -3598 -3599 3600 -3602 0
-3597 -3598 3602 0
-3597 -3599 3602 0
3597 3598 3602 0
3597 3599 3602 0
-3600 3602 0
261 -262 3899 3900 -3603 0
-261 262 -3899 3900 -3603 0
-261 -262 3603 0
-261 3899 3603 0
261 262 3603 0
261 -3899 3603 0
-3900 3603 0
-261 262 -3899 3900 -3604 0
-261 -262 -3899 -3900 -3604 0
-262 3900 3604 0
262 -3900 3604 0
261 3604 0
3899 3604 0
3603 3604 -3605 0
3603 -3604 -3605 0
-3603 3605 0
3603 -3604 -3606 0
-3603 -3604 -3606 0
3604 3606 0
3535 3536 -3607 0
3535 -3536 -3607 0
-3535 3607 0
3535 -3536 -3608 0
-3535 -3536 -3608 0
3536 3608 0
-97 98 99 -100 -3609 0
-97 -98 -99 -100 -3609 0
-98 99 3609 0
98 -99 3609 0
97 3609 0
100 3609 0
97 -98 99 100 -3610 0
-97 98 99 -100 -3610 0
-97 -98 3610 0
-97 100 3610 0
97 98 3610 0
97 -100 3610 0
-99 3610 0
3611 0
3612 0
3613 0
3614 0
-3901 3902 3903 3904 -3615 0
3901 -3902 -3903 3904 -3615 0
-3901 -3902 3615 0
-3901 -3903 3615 0
3901 3902 3615 0
3901 3903 3615 0
-3904 3615 0
3901 -3902 -3903 3904 -3616 0
-3901 -3902 -3903 -3904 -3616 0
-3901 3904 3616 0
3901 -3904 3616 0
3902 3616 0
3903 3616 0
3615 3616 -3617 0
3615 -3616 -3617 0
-3615 3617 0
3615 -3616 -3618 0
-3615 -3616 -3618 0
3616 3618 0
47 -48 61 62 -3619 0
-47 48 61 -62 -3619 0
-47 -48 3619 0
-47 62 3619 0
47 48 3619 0
47 -62 3619 0
-61 3619 0
-47 48 61 -62 -3620 0
-47 -48 -61 -62 -3620 0
-48 61 3620 0
48 -61 3620 0
47 3620 0
62 3620 0
-3905 3906 3907 3908 -3621 0
3905 -3906 -3907 3908 -3621 0
-3905 -3906 3621 0
-3905 -3907 3621 0
3905 3906 3621 0
3905 3907 3621 0
-3908 3621 0
3905 -3906 -3907 3908 -3622 0
-3905 -3906 -3907 -3908 -3622 0
-3905 3908 3622 0
3905 -3908 3622 0
3906 3622 0
3907 3622 0
83 -84 153 154 -3623 0
-83 84 153 -154 -3623 0
-83 -84 3623 0
-83 154 3623 0
83 84 3623 0
83 -154 3623 0
-153 3623 0
-83 84 153 -154 -3624 0
-83 -84 -153 -154 -3624 0
-84 153 3624 0
84 -153 3624 0
83 3624 0
154 3624 0
125 -126 153 154 -3625 0
-125 126 153 -154 -3625 0
-125 -126 3625 0
-125 154 3625 0
125 126 3625 0
125 -154 3625 0
-153 3625 0
-125 126 153 -154 -3626 0
-125 -126 -153 -154 -3626 0
-126 153 3626 0
126 -153 3626 0
125 3626 0
154 3626 0
-3909 3910 3911 3912 -3627 0
3909 -3910 -3911 3912 -3627 0
-3909 -3910 3627 0
-3909 -3911 3627 0
3909 3910 3627 0
3909 3911 3627 0
-3912 3627 0
3909 -3910 -3911 3912 -3628 0
-3909 -3910 -3911 -3912 -3628 0
-3909 3912 3628 0
3909 -3912 3628 0
3910 3628 0
3911 3628 0
161 -162 3535 3536 -3629 0
-161 162 -3535 3536 -3629 0
-161 -162 3629 0
-161 3535 3629 0
161 162 3629 0
161 -3535 3629 0
-3536 3629 0
-161 162 -3535 3536 -3630 0
-161 -162 -3535 -3536 -3630 0
-162 3536 3630 0
162 -3536 3630 0
161 3630 0
3535 3630 0
-3913 3914 3915 3916 -3631 0
3913 -3914 -3915 3916 -3631 0
-3913 -3914 3631 0
-3913 -3915 3631 0
3913 3914 3631 0
3913 3915 3631 0
-3916 3631 0
3913 -3914 -3915 3916 -3632 0
-3913 -3914 -3915 -3916 -3632 0
-3913 3916 3632 0
3913 -3916 3632 0
3914 3632 0
3915 3632 0
-3917 3918 3919 3920 -3633 0
3917 -3918 -3919 3920 -3633 0
-3917 -3918 3633 0
-3917 -3919 3633 0
3917 3918 3633 0
3917 3919 3633 0
-3920 3633 0
3917 -3918 -3919 3920 -3634 0
-3917 -3918 -3919 -3920 -3634 0
-3917 3920 3634 0
3917 -3920 3634 0
3918 3634 0
3919 3634 0
-3921 3922 3923 3924 -3635 0
3921 -3922 -3923 3924 -3635 0
-3921 -3922 3635 0
-3921 -3923 3635 0
3921 3922 3635 0
3921 3923 3635 0
-3924 3635 0
3921 -3922 -3923 3924 -3636 0
-3921 -3922 -3923 -3924 -3636 0
-3921 3924 3636 0
3921 -3924 3636 0
3922 3636 0
3923 3636 0
151 -152 181 182 -3637 0
-151 152 181 -182 -3637 0
-151 -152 3637 0
-151 182 3637 0
151 152 3637 0
151 -182 3637 0
-181 3637 0
-151 152 181 -182 -3638 0
-151 -152 -181 -182 -3638 0
-152 181 3638 0
152 -181 3638 0
151 3638 0
182 3638 0
-3925 3926 3927 3928 -3639 0
3925 -3926 -3927 3928 -3639 0
-3925 -3926 3639 0
-3925 -3927 3639 0
3925 3926 3639 0
3925 3927 3639 0
-3928 3639 0
3925 -3926 -3927 3928 -3640 0
-3925 -3926 -3927 -3928 -3640 0
-3925 3928 3640 0
3925 -3928 3640 0
3926 3640 0
3927 3640 0
-3929 3930 3931 3932 -3641 0
3929 -3930 -3931 3932 -3641 0
-3929 -3930 3641 0
-3929 -3931 3641 0
3929 3930 3641 0
3929 3931 3641 0
-3932 3641 0
3929 -3930 -3931 3932 -3642 0
-3929 -3930 -3931 -3932 -3642 0
-3929 3932 3642 0
3929 -3932 3642 0
3930 3642 0
3931 3642 0
-3933 3934 3935 3936 -3643 0
3933 -3934 -3935 3936 -3643 0
-3933 -3934 3643 0
-3933 -3935 3643 0
3933 3934 3643 0
3933 3935 3643 0
-3936 3643 0
3933 -3934 -3935 3936 -3644 0
-3933 -3934 -3935 -3936 -3644 0
-3933 3936 3644 0
3933 -3936 3644 0
3934 3644 0
3935 3644 0
105 -106 195 196 -3645 0
-105 106 195 -196 -3645 0
-105 -106 3645 0
-105 196 3645 0
105 106 3645 0
105 -196 3645 0
-195 3645 0
-105 106 195 -196 -3646 0
-105 -106 -195 -196 -3646 0
-106 195 3646 0
106 -195 3646 0
105 3646 0
196 3646 0
-3937 3938 3939 3940 -3647 0
3937 -3938 -3939 3940 -3647 0
-3937 -3938 3647 0
-3937 -3939 3647 0
3937 3938 3647 0
3937 3939 3647 0
-3940 3647 0
3937 -3938 -3939 3940 -3648 0
-3937 -3938 -3939 -3940 -3648 0
-3937 3940 3648 0
3937 -3940 3648 0
3938 3648 0
3939 3648 0
-3941 3942 3943 3944 -3649 0
3941 -3942 -3943 3944 -3649 0
-3941 -3942 3649 0
-3941 -3943 3649 0
3941 3942 3649 0
3941 3943 3649 0
-3944 3649 0
3941 -3942 -3943 3944 -3650 0
-3941 -3942 -3943 -3944 -3650 0
-3941 3944 3650 0
3941 -3944 3650 0
3942 3650 0
3943 3650 0
-3945 3946 3947 3948 -3651 0
3945 -3946 -3947 3948 -3651 0
-3945 -3946 3651 0
-3945 -3947 3651 0
3945 3946 3651 0
3945 3947 3651 0
-3948 3651 0
3945 -3946 -3947 3948 -3652 0
-3945 -3946 -3947 -3948 -3652 0
-3945 3948 3652 0
3945 -3948 3652 0
3946 3652 0
3947 3652 0
1 -2 63 64 -3653 0
-1 2 63 -64 -3653 0
-1 -2 3653 0
-1 64 3653 0
1 2 3653 0
1 -64 3653 0
-63 3653 0
-1 2 63 -64 -3654 0
-1 -2 -63 -64 -3654 0
-2 63 3654 0
2 -63 3654 0
1 3654 0
64 3654 0
-3949 3950 3951 3952 -3655 0
3949 -3950 -3951 3952 -3655 0
-3949 -3950 3655 0
-3949 -3951 3655 0
3949 3950 3655 0
3949 3951 3655 0
-3952 3655 0
3949 -3950 -3951 3952 -3656 0
-3949 -3950 -3951 -3952 -3656 0
-3949 3952 3656 0
3949 -3952 3656 0
3950 3656 0
3951 3656 0
-3953 3954 3955 3956 -3657 0
3953 -3954 -3955 3956 -3657 0
-3953 -3954 3657 0
-3953 -3955 3657 0
3953 3954 3657 0
3953 3955 3657 0
-3956 3657 0
3953 -3954 -3955 3956 -3658 0
-3953 -3954 -3955 -3956 -3658 0
-3953 3956 3658 0
3953 -3956 3658 0
3954 3658 0
3955 3658 0
-3957 3958 3959 3960 -3659 0
3957 -3958 -3959 3960 -3659 0
-3957 -3958 3659 0
-3957 -3959 3659 0
3957 3958 3659 0
3957 3959 3659 0
-3960 3659 0
3957 -3958 -3959 3960 -3660 0
-3957 -3958 -3959 -3960 -3660 0
-3957 3960 3660 0
3957 -3960 3660 0
3958 3660 0
3959 3660 0
-3961 3962 3963 3964 -3661 0
3961 -3962 -3963 3964 -3661 0
-3961 -3962 3661 0
-3961 -3963 3661 0
3961 3962 3661 0
3961 3963 3661 0
-3964 3661 0
3961 -3962 -3963 3964 -3662 0
-3961 -3962 -3963 -3964 -3662 0
-3961 3964 3662 0
3961 -3964 3662 0
3962 3662 0
3963 3662 0
-3965 3966 3967 3968 -3663 0
3965 -3966 -3967 3968 -3663 0
-3965 -3966 3663 0
-3965 -3967 3663 0
3965 3966 3663 0
3965 3967 3663 0
-3968 3663 0
3965 -3966 -3967 3968 -3664 0
-3965 -3966 -3967 -3968 -3664 0
-3965 3968 3664 0
3965 -3968 3664 0
3966 3664 0
3967 3664 0
-3969 3970 3971 3972 -3665 0
3969 -3970 -3971 3972 -3665 0
-3969 -3970 3665 0
-3969 -3971 3665 0
3969 3970 3665 0
3969 3971 3665 0
-3972 3665 0
3969 -3970 -3971 3972 -3666 0
-3969 -3970 -3971 -3972 -3666 0
-3969 3972 3666 0
3969 -3972 3666 0
3970 3666 0
3971 3666 0
163 -164 3973 3974 -3667 0
-163 164 -3973 3974 -3667 0
-163 -164 3667 0
-163 3973 3667 0
163 164 3667 0
163 -3973 3667 0
-3974 3667 0
-163 164 -3973 3974 -3668 0
-163 -164 -3973 -3974 -3668 0
-164 3974 3668 0
164 -3974 3668 0
163 3668 0
3973 3668 0
-3975 3976 3977 3978 -3669 0
3975 -3976 -3977 3978 -3669 0
-3975 -3976 3669 0
-3975 -3977 3669 0
3975 3976 3669 0
3975 3977 3669 0
-3978 3669 0
3975 -3976 -3977 3978 -3670 0
-3975 -3976 -3977 -3978 -3670 0
-3975 3978 3670 0
3975 -3978 3670 0
3976 3670 0
3977 3670 0
-3979 3980 3981 3982 -3671 0
3979 -3980 -3981 3982 -3671 0
-3979 -3980 3671 0
-3979 -3981 3671 0
3979 3980 3671 0
3979 3981 3671 0
-3982 3671 0
3979 -3980 -3981 3982 -3672 0
-3979 -3980 -3981 -3982 -3672 0
-3979 3982 3672 0
3979 -3982 3672 0
3980 3672 0
3981 3672 0
-3983 3984 3985 3986 -3673 0
3983 -3984 -3985 3986 -3673 0
-3983 -3984 3673 0
-3983 -3985 3673 0
3983 3984 3673 0
3983 3985 3673 0
-3986 3673 0
3983 -3984 -3985 3986 -3674 0
-3983 -3984 -3985 -3986 -3674 0
-3983 3986 3674 0
3983 -3986 3674 0
3984 3674 0
3985 3674 0
95 -96 255 256 -3675 0
-95 96 255 -256 -3675 0
-95 -96 3675 0
-95 256 3675 0
95 96 3675 0
95 -256 3675 0
-255 3675 0
-95 96 255 -256 -3676 0
-95 -96 -255 -256 -3676 0
-96 255 3676 0
96 -255 3676 0
95 3676 0
256 3676 0
109 -110 111 112 -3677 0
-109 110 111 -112 -3677 0
-109 -110 3677 0
-109 112 3677 0
109 110 3677 0
109 -112 3677 0
-111 3677 0
-109 110 111 -112 -3678 0
-109 -110 -111 -112 -3678 0
-110 111 3678 0
110 -111 3678 0
109 3678 0
112 3678 0
109 -110 111 112 -3679 0
-109 110 111 -112 -3679 0
-109 -110 3679 0
-109 112 3679 0
109 110 3679 0
109 -112 3679 0
-111 3679 0
-109 110 111 -112 -3680 0
-109 -110 -111 -112 -3680 0
-110 111 3680 0
110 -111 3680 0
109 3680 0
112 3680 0
109 -110 113 114 -3681 0
-109 110 113 -114 -3681 0
-109 -110 3681 0
-109 114 3681 0
109 110 3681 0
109 -114 3681 0
-113 3681 0
-109 110 113 -114 -3682 0
-109 -110 -113 -114 -3682 0
-110 113 3682 0
110 -113 3682 0
109 3682 0
114 3682 0
-3987 3988 3989 3990 -3683 0
3987 -3988 -3989 3990 -3683 0
-3987 -3988 3683 0
-3987 -3989 3683 0
3987 3988 3683 0
3987 3989 3683 0
-3990 3683 0
3987 -3988 -3989 3990 -3684 0
-3987 -3988 -3989 -3990 -3684 0
-3987 3990 3684 0
3987 -3990 3684 0
3988 3684 0
3989 3684 0
-3991 3992 3993 3994 -3685 0
3991 -3992 -3993 3994 -3685 0
-3991 -3992 3685 0
-3991 -3993 3685 0
3991 3992 3685 0
3991 3993 3685 0
-3994 3685 0
3991 -3992 -3993 3994 -3686 0
-3991 -3992 -3993 -3994 -3686 0
-3991 3994 3686 0
3991 -3994 3686 0
3992 3686 0
3993 3686 0
179 -180 3995 3996 -3687 0
-179 180 -3995 3996 -3687 0
-179 -180 3687 0
-179 3995 3687 0
179 180 3687 0
179 -3995 3687 0
-3996 3687 0
-179 180 -3995 3996 -3688 0
-179 -180 -3995 -3996 -3688 0
-180 3996 3688 0
180 -3996 3688 0
179 3688 0
3995 3688 0
179 -180 3997 3998 -3689 0
-179 180 -3997 3998 -3689 0
-179 -180 3689 0
-179 3997 3689 0
179 180 3689 0
179 -3997 3689 0
-3998 3689 0
-179 180 -3997 3998 -3690 0
-179 -180 -3997 -3998 -3690 0
-180 3998 3690 0
180 -3998 3690 0
179 3690 0
3997 3690 0
179 -180 3995 3996 -3691 0
-179 180 -3995 3996 -3691 0
-179 -180 3691 0
-179 3995 3691 0
179 180 3691 0
179 -3995 3691 0
-3996 3691 0
-179 180 -3995 3996 -3692 0
-179 -180 -3995 -3996 -3692 0
-180 3996 3692 0
180 -3996 3692 0
179 3692 0
3995 3692 0
179 -180 3999 4000 -3693 0
-179 180 -3999 4000 -3693 0
-179 -180 3693 0
-179 3999 3693 0
179 180 3693 0
179 -3999 3693 0
-4000 3693 0
-179 180 -3999 4000 -3694 0
-179 -180 -3999 -4000 -3694 0
-180 4000 3694 0
180 -4000 3694 0
179 3694 0
3999 3694 0
179 -180 3995 3996 -3695 0
-179 180 -3995 3996 -3695 0
-179 -180 3695 0
-179 3995 3695 0
179 180 3695 0
179 -3995 3695 0
-3996 3695 0
-179 180 -3995 3996 -3696 0
-179 -180 -3995 -3996 -3696 0
-180 3996 3696 0
180 -3996 3696 0
179 3696 0
3995 3696 0
179 -180 3995 3996 -3697 0
-179 180 -3995 3996 -3697 0
-179 -180 3697 0
-179 3995 3697 0
179 180 3697 0
179 -3995 3697 0
-3996 3697 0
-179 180 -3995 3996 -3698 0
-179 -180 -3995 -3996 -3698 0
-180 3996 3698 0
180 -3996 3698 0
179 3698 0
3995 3698 0
113 -114 179 180 -3699 0
-113 114 179 -180 -3699 0
-113 -114 3699 0
-113 180 3699 0
113 114 3699 0
113 -180 3699 0
-179 3699 0
-113 114 179 -180 -3700 0
-113 -114 -179 -180 -3700 0
-114 179 3700 0
114 -179 3700 0
113 3700 0
180 3700 0
179 -180 4001 4002 -3701 0
-179 180 -4001 4002 -3701 0
-179 -180 3701 0
-179 4001 3701 0
179 180 3701 0
179 -4001 3701 0
-4002 3701 0
-179 180 -4001 4002 -3702 0
-179 -180 -4001 -4002 -3702 0
-180 4002 3702 0
180 -4002 3702 0
179 3702 0
4001 3702 0
179 -180 3995 3996 -3703 0
-179 180 -3995 3996 -3703 0
-179 -180 3703 0
-179 3995 3703 0
179 180 3703 0
179 -3995 3703 0
-3996 3703 0
-179 180 -3995 3996 -3704 0
-179 -180 -3995 -3996 -3704 0
-180 3996 3704 0
180 -3996 3704 0
179 3704 0
3995 3704 0
179 -180 3995 3996 -3705 0
-179 180 -3995 3996 -3705 0
-179 -180 3705 0
-179 3995 3705 0
179 180 3705 0
179 -3995 3705 0
-3996 3705 0
-179 180 -3995 3996 -3706 0
-179 -180 -3995 -3996 -3706 0
-180 3996 3706 0
180 -3996 3706 0
179 3706 0
3995 3706 0
111 -112 179 180 -3707 0
-111 112 179 -180 -3707 0
-111 -112 3707 0
-111 180 3707 0
111 112 3707 0
111 -180 3707 0
-179 3707 0
-111 112 179 -180 -3708 0
-111 -112 -179 -180 -3708 0
-112 179 3708 0
112 -179 3708 0
111 3708 0
180 3708 0
179 -180 3995 3996 -3709 0
-179 180 -3995 3996 -3709 0
-179 -180 3709 0
-179 3995 3709 0
179 180 3709 0
179 -3995 3709 0
-3996 3709 0
-179 180 -3995 3996 -3710 0
-179 -180 -3995 -3996 -3710 0
-180 3996 3710 0
180 -3996 3710 0
179 3710 0
3995 3710 0
109 -110 179 180 -3711 0
-109 110 179 -180 -3711 0
-109 -110 3711 0
-109 180 3711 0
109 110 3711 0
109 -180 3711 0
-179 3711 0
-109 110 179 -180 -3712 0
-109 -110 -179 -180 -3712 0
-110 179 3712 0
110 -179 3712 0
109 3712 0
180 3712 0
-4003 4004 4005 4006 -3713 0
4003 -4004 -4005 4006 -3713 0
-4003 -4004 3713 0
-4003 -4005 3713 0
4003 4004 3713 0
4003 4005 3713 0
-4006 3713 0
4003 -4004 -4005 4006 -3714 0
-4003 -4004 -4005 -4006 -3714 0
-4003 4006 3714 0
4003 -4006 3714 0
4004 3714 0
4005 3714 0
-4007 4008 4009 4010 -3715 0
4007 -4008 -4009 4010 -3715 0
-4007 -4008 3715 0
-4007 -4009 3715 0
4007 4008 3715 0
4007 4009 3715 0
-4010 3715 0
4007 -4008 -4009 4010 -3716 0
-4007 -4008 -4009 -4010 -3716 0
-4007 4010 3716 0
4007 -4010 3716 0
4008 3716 0
4009 3716 0
-4011 4012 4013 4014 -3717 0
4011 -4012 -4013 4014 -3717 0
-4011 -4012 3717 0
-4011 -4013 3717 0
4011 4012 3717 0
4011 4013 3717 0
-4014 3717 0
4011 -4012 -4013 4014 -3718 0
-4011 -4012 -4013 -4014 -3718 0
-4011 4014 3718 0
4011 -4014 3718 0
4012 3718 0
4013 3718 0
179 -180 4015 4016 -3719 0
-179 180 -4015 4016 -3719 0
-179 -180 3719 0
-179 4015 3719 0
179 180 3719 0
179 -4015 3719 0
-4016 3719 0
-179 180 -4015 4016 -3720 0
-179 -180 -4015 -4016 -3720 0
-180 4016 3720 0
180 -4016 3720 0
179 3720 0
4015 3720 0
179 -180 4017 4018 -3721 0
-179 180 -4017 4018 -3721 0
-179 -180 3721 0
-179 4017 3721 0
179 180 3721 0
179 -4017 3721 0
-4018 3721 0
-179 180 -4017 4018 -3722 0
-179 -180 -4017 -4018 -3722 0
-180 4018 3722 0
180 -4018 3722 0
179 3722 0
4017 3722 0
-4019 4020 4021 4022 -3723 0
4019 -4020 -4021 4022 -3723 0
-4019 -4020 3723 0
-4019 -4021 3723 0
4019 4020 3723 0
4019 4021 3723 0
-4022 3723 0
4019 -4020 -4021 4022 -3724 0
-4019 -4020 -4021 -4022 -3724 0
-4019 4022 3724 0
4019 -4022 3724 0
4020 3724 0
4021 3724 0
-4023 4024 4025 4026 -3725 0
4023 -4024 -4025 4026 -3725 0
-4023 -4024 3725 0
-4023 -4025 3725 0
4023 4024 3725 0
4023 4025 3725 0
-4026 3725 0
4023 -4024 -4025 4026 -3726 0
-4023 -4024 -4025 -4026 -3726 0
-4023 4026 3726 0
4023 -4026 3726 0
4024 3726 0
4025 3726 0
-4027 4028 4029 4030 -3727 0
4027 -4028 -4029 4030 -3727 0
-4027 -4028 3727 0
-4027 -4029 3727 0
4027 4028 3727 0
4027 4029 3727 0
-4030 3727 0
4027 -4028 -4029 4030 -3728 0
-4027 -4028 -4029 -4030 -3728 0
-4027 4030 3728 0
4027 -4030 3728 0
4028 3728 0
4029 3728 0
-4031 4032 4033 4034 -3729 0
4031 -4032 -4033 4034 -3729 0
-4031 -4032 3729 0
-4031 -4033 3729 0
4031 4032 3729 0
4031 4033 3729 0
-4034 3729 0
4031 -4032 -4033 4034 -3730 0
-4031 -4032 -4033 -4034 -3730 0
-4031 4034 3730 0
4031 -4034 3730 0
4032 3730 0
4033 3730 0
-4035 4036 4037 4038 -3731 0
4035 -4036 -4037 4038 -3731 0
-4035 -4036 3731 0
-4035 -4037 3731 0
4035 4036 3731 0
4035 4037 3731 0
-4038 3731 0
4035 -4036 -4037 4038 -3732 0
-4035 -4036 -4037 -4038 -3732 0
-4035 4038 3732 0
4035 -4038 3732 0
4036 3732 0
4037 3732 0
71 -72 4039 4040 -3733 0
-71 72 -4039 4040 -3733 0
-71 -72 3733 0
-71 4039 3733 0
71 72 3733 0
71 -4039 3733 0
-4040 3733 0
-71 72 -4039 4040 -3734 0
-71 -72 -4039 -4040 -3734 0
-72 4040 3734 0
72 -4040 3734 0
71 3734 0
4039 3734 0
-4041 4042 4043 4044 -3735 0
4041 -4042 -4043 4044 -3735 0
-4041 -4042 3735 0
-4041 -4043 3735 0
4041 4042 3735 0
4041 4043 3735 0
-4044 3735 0
4041 -4042 -4043 4044 -3736 0
-4041 -4042 -4043 -4044 -3736 0
-4041 4044 3736 0
4041 -4044 3736 0
4042 3736 0
4043 3736 0
-4045 4046 4047 4048 -3737 0
4045 -4046 -4047 4048 -3737 0
-4045 -4046 3737 0
-4045 -4047 3737 0
4045 4046 3737 0
4045 4047 3737 0
-4048 3737 0
4045 -4046 -4047 4048 -3738 0
-4045 -4046 -4047 -4048 -3738 0
-4045 4048 3738 0
4045 -4048 3738 0
4046 3738 0
4047 3738 0
-3487 3488 4049 4050 -3739 0
3487 -3488 -4049 4050 -3739 0
-3487 -3488 3739 0
-3487 -4049 3739 0
3487 3488 3739 0
3487 4049 3739 0
-4050 3739 0
3487 -3488 -4049 4050 -3740 0
-3487 -3488 -4049 -4050 -3740 0
-3487 4050 3740 0
3487 -4050 3740 0
3488 3740 0
4049 3740 0
237 -238 4051 4052 -3741 0
-237 238 -4051 4052 -3741 0
-237 -238 3741 0
-237 4051 3741 0
237 238 3741 0
237 -4051 3741 0
-4052 3741 0
-237 238 -4051 4052 -3742 0
-237 -238 -4051 -4052 -3742 0
-238 4052 3742 0
238 -4052 3742 0
237 3742 0
4051 3742 0
-4053 4054 4055 4056 -3743 0
4053 -4054 -4055 4056 -3743 0
-4053 -4054 3743 0
-4053 -4055 3743 0
4053 4054 3743 0
4053 4055 3743 0
-4056 3743 0
4053 -4054 -4055 4056 -3744 0
-4053 -4054 -4055 -4056 -3744 0
-4053 4056 3744 0
4053 -4056 3744 0
4054 3744 0
4055 3744 0
179 -180 4057 4058 -3745 0
-179 180 -4057 4058 -3745 0
-179 -180 3745 0
-179 4057 3745 0
179 180 3745 0
179 -4057 3745 0
-4058 3745 0
-179 180 -4057 4058 -3746 0
-179 -180 -4057 -4058 -3746 0
-180 4058 3746 0
180 -4058 3746 0
179 3746 0
4057 3746 0
-4059 4060 4061 4062 -3747 0
4059 -4060 -4061 4062 -3747 0
-4059 -4060 3747 0
-4059 -4061 3747 0
4059 4060 3747 0
4059 4061 3747 0
-4062 3747 0
4059 -4060 -4061 4062 -3748 0
-4059 -4060 -4061 -4062 -3748 0
-4059 4062 3748 0
4059 -4062 3748 0
4060 3748 0
4061 3748 0
155 -156 4063 4064 -3749 0
-155 156 -4063 4064 -3749 0
-155 -156 3749 0
-155 4063 3749 0
155 156 3749 0
155 -4063 3749 0
-4064 3749 0
-155 156 -4063 4064 -3750 0
-155 -156 -4063 -4064 -3750 0
-156 4064 3750 0
156 -4064 3750 0
155 3750 0
4063 3750 0
-4065 4066 4067 4068 -3751 0
4065 -4066 -4067 4068 -3751 0
-4065 -4066 3751 0
-4065 -4067 3751 0
4065 4066 3751 0
4065 4067 3751 0
-4068 3751 0
4065 -4066 -4067 4068 -3752 0
-4065 -4066 -4067 -4068 -3752 0
-4065 4068 3752 0
4065 -4068 3752 0
4066 3752 0
4067 3752 0
-4069 4070 4071 4072 -3753 0
4069 -4070 -4071 4072 -3753 0
-4069 -4070 3753 0
-4069 -4071 3753 0
4069 4070 3753 0
4069 4071 3753 0
-4072 3753 0
4069 -4070 -4071 4072 -3754 0
-4069 -4070 -4071 -4072 -3754 0
-4069 4072 3754 0
4069 -4072 3754 0
4070 3754 0
4071 3754 0
-4073 4074 4075 4076 -3755 0
4073 -4074 -4075 4076 -3755 0
-4073 -4074 3755 0
-4073 -4075 3755 0
4073 4074 3755 0
4073 4075 3755 0
-4076 3755 0
4073 -4074 -4075 4076 -3756 0
-4073 -4074 -4075 -4076 -3756 0
-4073 4076 3756 0
4073 -4076 3756 0
4074 3756 0
4075 3756 0
-4077 4078 4079 4080 -3757 0
4077 -4078 -4079 4080 -3757 0
-4077 -4078 3757 0
-4077 -4079 3757 0
4077 4078 3757 0
4077 4079 3757 0
-4080 3757 0
4077 -4078 -4079 4080 -3758 0
-4077 -4078 -4079 -4080 -3758 0
-4077 4080 3758 0
4077 -4080 3758 0
4078 3758 0
4079 3758 0
-4081 4082 4083 4084 -3759 0
4081 -4082 -4083 4084 -3759 0
-4081 -4082 3759 0
-4081 -4083 3759 0
4081 4082 3759 0
4081 4083 3759 0
-4084 3759 0
4081 -4082 -4083 4084 -3760 0
-4081 -4082 -4083 -4084 -3760 0
-4081 4084 3760 0
4081 -4084 3760 0
4082 3760 0
4083 3760 0
231 -232 4085 4086 -3761 0
-231 232 -4085 4086 -3761 0
-231 -232 3761 0
-231 4085 3761 0
231 232 3761 0
231 -4085 3761 0
-4086 3761 0
-231 232 -4085 4086 -3762 0
-231 -232 -4085 -4086 -3762 0
-232 4086 3762 0
232 -4086 3762 0
231 3762 0
4085 3762 0
173 -174 177 178 -3763 0
-173 174 177 -178 -3763 0
-173 -174 3763 0
-173 178 3763 0
173 174 3763 0
173 -178 3763 0
-177 3763 0
-173 174 177 -178 -3764 0
-173 -174 -177 -178 -3764 0
-174 177 3764 0
174 -177 3764 0
173 3764 0
178 3764 0
-3535 3536 4035 4036 -3765 0
3535 -3536 -4035 4036 -3765 0
-3535 -3536 3765 0
-3535 -4035 3765 0
3535 3536 3765 0
3535 4035 3765 0
-4036 3765 0
3535 -3536 -4035 4036 -3766 0
-3535 -3536 -4035 -4036 -3766 0
-3535 4036 3766 0
3535 -4036 3766 0
3536 3766 0
4035 3766 0
47 -48 79 80 -3767 0
-47 48 79 -80 -3767 0
-47 -48 3767 0
-47 80 3767 0
47 48 3767 0
47 -80 3767 0
-79 3767 0
-47 48 79 -80 -3768 0
-47 -48 -79 -80 -3768 0
-48 79 3768 0
48 -79 3768 0
47 3768 0
80 3768 0
-4087 4088 4089 4090 -3769 0
4087 -4088 -4089 4090 -3769 0
-4087 -4088 3769 0
-4087 -4089 3769 0
4087 4088 3769 0
4087 4089 3769 0
-4090 3769 0
4087 -4088 -4089 4090 -3770 0
-4087 -4088 -4089 -4090 -3770 0
-4087 4090 3770 0
4087 -4090 3770 0
4088 3770 0
4089 3770 0
87 -88 181 182 -3771 0
-87 88 181 -182 -3771 0
-87 -88 3771 0
-87 182 3771 0
87 88 3771 0
87 -182 3771 0
-181 3771 0
-87 88 181 -182 -3772 0
-87 -88 -181 -182 -3772 0
-88 181 3772 0
88 -181 3772 0
87 3772 0
182 3772 0
-4091 4092 4093 4094 -3773 0
4091 -4092 -4093 4094 -3773 0
-4091 -4092 3773 0
-4091 -4093 3773 0
4091 4092 3773 0
4091 4093 3773 0
-4094 3773 0
4091 -4092 -4093 4094 -3774 0
-4091 -4092 -4093 -4094 -3774 0
-4091 4094 3774 0
4091 -4094 3774 0
4092 3774 0
4093 3774 0
187 -188 189 190 -3775 0
-187 188 189 -190 -3775 0
-187 -188 3775 0
-187 190 3775 0
187 188 3775 0
187 -190 3775 0
-189 3775 0
-187 188 189 -190 -3776 0
-187 -188 -189 -190 -3776 0
-188 189 3776 0
188 -189 3776 0
187 3776 0
190 3776 0
187 -188 189 190 -3777 0
-187 188 189 -190 -3777 0
-187 -188 3777 0
-187 190 3777 0
187 188 3777 0
187 -190 3777 0
-189 3777 0
-187 188 189 -190 -3778 0
-187 -188 -189 -190 -3778 0
-188 189 3778 0
188 -189 3778 0
187 3778 0
190 3778 0
87 -88 181 182 -3779 0
-87 88 181 -182 -3779 0
-87 -88 3779 0
-87 182 3779 0
87 88 3779 0
87 -182 3779 0
-181 3779 0
-87 88 181 -182 -3780 0
-87 -88 -181 -182 -3780 0
-88 181 3780 0
88 -181 3780 0
87 3780 0
182 3780 0
-4095 4096 4097 4098 -3781 0
4095 -4096 -4097 4098 -3781 0
-4095 -4096 3781 0
-4095 -4097 3781 0
4095 4096 3781 0
4095 4097 3781 0
-4098 3781 0
4095 -4096 -4097 4098 -3782 0
-4095 -4096 -4097 -4098 -3782 0
-4095 4098 3782 0
4095 -4098 3782 0
4096 3782 0
4097 3782 0
83 -84 4099 4100 -3783 0
-83 84 -4099 4100 -3783 0
-83 -84 3783 0
-83 4099 3783 0
83 84 3783 0
83 -4099 3783 0
-4100 3783 0
-83 84 -4099 4100 -3784 0
-83 -84 -4099 -4100 -3784 0
-84 4100 3784 0
84 -4100 3784 0
83 3784 0
4099 3784 0
251 -252 4099 4100 -3785 0
-251 252 -4099 4100 -3785 0
-251 -252 3785 0
-251 4099 3785 0
251 252 3785 0
251 -4099 3785 0
-4100 3785 0
-251 252 -4099 4100 -3786 0
-251 -252 -4099 -4100 -3786 0
-252 4100 3786 0
252 -4100 3786 0
251 3786 0
4099 3786 0
253 -254 4099 4100 -3787 0
-253 254 -4099 4100 -3787 0
-253 -254 3787 0
-253 4099 3787 0
253 254 3787 0
253 -4099 3787 0
-4100 3787 0
-253 254 -4099 4100 -3788 0
-253 -254 -4099 -4100 -3788 0
-254 4100 3788 0
254 -4100 3788 0
253 3788 0
4099 3788 0
-4101 4102 4103 4104 -3789 0
4101 -4102 -4103 4104 -3789 0
-4101 -4102 3789 0
-4101 -4103 3789 0
4101 4102 3789 0
4101 4103 3789 0
-4104 3789 0
4101 -4102 -4103 4104 -3790 0
-4101 -4102 -4103 -4104 -3790 0
-4101 4104 3790 0
4101 -4104 3790 0
4102 3790 0
4103 3790 0
-4105 4106 4107 4108 -3791 0
4105 -4106 -4107 4108 -3791 0
-4105 -4106 3791 0
-4105 -4107 3791 0
4105 4106 3791 0
4105 4107 3791 0
-4108 3791 0
4105 -4106 -4107 4108 -3792 0
-4105 -4106 -4107 -4108 -3792 0
-4105 4108 3792 0
4105 -4108 3792 0
4106 3792 0
4107 3792 0
-3737 3738 4109 4110 -3793 0
3737 -3738 -4109 4110 -3793 0
-3737 -3738 3793 0
-3737 -4109 3793 0
3737 3738 3793 0
3737 4109 3793 0
-4110 3793 0
3737 -3738 -4109 4110 -3794 0
-3737 -3738 -4109 -4110 -3794 0
-3737 4110 3794 0
3737 -4110 3794 0
3738 3794 0
4109 3794 0
-4111 4112 4113 4114 -3795 0
4111 -4112 -4113 4114 -3795 0
-4111 -4112 3795 0
-4111 -4113 3795 0
4111 4112 3795 0
4111 4113 3795 0
-4114 3795 0
4111 -4112 -4113 4114 -3796 0
-4111 -4112 -4113 -4114 -3796 0
-4111 4114 3796 0
4111 -4114 3796 0
4112 3796 0
4113 3796 0
-4115 4116 4117 4118 -3797 0
4115 -4116 -4117 4118 -3797 0
-4115 -4116 3797 0
-4115 -4117 3797 0
4115 4116 3797 0
4115 4117 3797 0
-4118 3797 0
4115 -4116 -4117 4118 -3798 0
-4115 -4116 -4117 -4118 -3798 0
-4115 4118 3798 0
4115 -4118 3798 0
4116 3798 0
4117 3798 0
-3801 3802 4119 4120 -3799 0
3801 -3802 -4119 4120 -3799 0
-3801 -3802 3799 0
-3801 -4119 3799 0
3801 3802 3799 0
3801 4119 3799 0
-4120 3799 0
3801 -3802 -4119 4120 -3800 0
-3801 -3802 -4119 -4120 -3800 0
-3801 4120 3800 0
3801 -4120 3800 0
3802 3800 0
4119 3800 0
-4121 4122 4123 4124 -3801 0
4121 -4122 -4123 4124 -3801 0
-4121 -4122 3801 0
-4121 -4123 3801 0
4121 4122 3801 0
4121 4123 3801 0
-4124 3801 0
4121 -4122 -4123 4124 -3802 0
-4121 -4122 -4123 -4124 -3802 0
-4121 4124 3802 0
4121 -4124 3802 0
4122 3802 0
4123 3802 0
-4125 4126 4127 4128 -3803 0
4125 -4126 -4127 4128 -3803 0
-4125 -4126 3803 0
-4125 -4127 3803 0
4125 4126 3803 0
4125 4127 3803 0
-4128 3803 0
4125 -4126 -4127 4128 -3804 0
-4125 -4126 -4127 -4128 -3804 0
-4125 4128 3804 0
4125 -4128 3804 0
4126 3804 0
4127 3804 0
-4129 4130 4131 4132 -3805 0
4129 -4130 -4131 4132 -3805 0
-4129 -4130 3805 0
-4129 -4131 3805 0
4129 4130 3805 0
4129 4131 3805 0
-4132 3805 0
4129 -4130 -4131 4132 -3806 0
-4129 -4130 -4131 -4132 -3806 0
-4129 4132 3806 0
4129 -4132 3806 0
4130 3806 0
4131 3806 0
-4133 4134 4135 4136 -3807 0
4133 -4134 -4135 4136 -3807 0
-4133 -4134 3807 0
-4133 -4135 3807 0
4133 4134 3807 0
4133 4135 3807 0
-4136 3807 0
4133 -4134 -4135 4136 -3808 0
-4133 -4134 -4135 -4136 -3808 0
-4133 4136 3808 0
4133 -4136 3808 0
4134 3808 0
4135 3808 0
-4137 4138 4139 4140 -3809 0
4137 -4138 -4139 4140 -3809 0
-4137 -4138 3809 0
-4137 -4139 3809 0
4137 4138 3809 0
4137 4139 3809 0
-4140 3809 0
4137 -4138 -4139 4140 -3810 0
-4137 -4138 -4139 -4140 -3810 0
-4137 4140 3810 0
4137 -4140 3810 0
4138 3810 0
4139 3810 0
-4141 4142 4143 4144 -3811 0
4141 -4142 -4143 4144 -3811 0
-4141 -4142 3811 0
-4141 -4143 3811 0
4141 4142 3811 0
4141 4143 3811 0
-4144 3811 0
4141 -4142 -4143 4144 -3812 0
-4141 -4142 -4143 -4144 -3812 0
-4141 4144 3812 0
4141 -4144 3812 0
4142 3812 0
4143 3812 0
-4145 4146 4147 4148 -3813 0
4145 -4146 -4147 4148 -3813 0
-4145 -4146 3813 0
-4145 -4147 3813 0
4145 4146 3813 0
4145 4147 3813 0
-4148 3813 0
4145 -4146 -4147 4148 -3814 0
-4145 -4146 -4147 -4148 -3814 0
-4145 4148 3814 0
4145 -4148 3814 0
4146 3814 0
4147 3814 0
207 -208 4149 4150 -3815 0
-207 208 -4149 4150 -3815 0
-207 -208 3815 0
-207 4149 3815 0
207 208 3815 0
207 -4149 3815 0
-4150 3815 0
-207 208 -4149 4150 -3816 0
-207 -208 -4149 -4150 -3816 0
-208 4150 3816 0
208 -4150 3816 0
207 3816 0
4149 3816 0
209 -210 4149 4150 -3817 0
-209 210 -4149 4150 -3817 0
-209 -210 3817 0
-209 4149 3817 0
209 210 3817 0
209 -4149 3817 0
-4150 3817 0
-209 210 -4149 4150 -3818 0
-209 -210 -4149 -4150 -3818 0
-210 4150 3818 0
210 -4150 3818 0
209 3818 0
4149 3818 0
-4151 4152 4153 4154 -3819 0
4151 -4152 -4153 4154 -3819 0
-4151 -4152 3819 0
-4151 -4153 3819 0
4151 4152 3819 0
4151 4153 3819 0
-4154 3819 0
4151 -4152 -4153 4154 -3820 0
-4151 -4152 -4153 -4154 -3820 0
-4151 4154 3820 0
4151 -4154 3820 0
4152 3820 0
4153 3820 0
-4149 4150 4155 4156 -3821 0
4149 -4150 -4155 4156 -3821 0
-4149 -4150 3821 0
-4149 -4155 3821 0
4149 4150 3821 0
4149 4155 3821 0
-4156 3821 0
4149 -4150 -4155 4156 -3822 0
-4149 -4150 -4155 -4156 -3822 0
-4149 4156 3822 0
4149 -4156 3822 0
4150 3822 0
4155 3822 0
213 -214 4145 4146 -3823 0
-213 214 -4145 4146 -3823 0
-213 -214 3823 0
-213 4145 3823 0
213 214 3823 0
213 -4145 3823 0
-4146 3823 0
-213 214 -4145 4146 -3824 0
-213 -214 -4145 -4146 -3824 0
-214 4146 3824 0
214 -4146 3824 0
213 3824 0
4145 3824 0
-4157 4158 4159 4160 -3825 0
4157 -4158 -4159 4160 -3825 0
-4157 -4158 3825 0
-4157 -4159 3825 0
4157 4158 3825 0
4157 4159 3825 0
-4160 3825 0
4157 -4158 -4159 4160 -3826 0
-4157 -4158 -4159 -4160 -3826 0
-4157 4160 3826 0
4157 -4160 3826 0
4158 3826 0
4159 3826 0
-4161 4162 4163 4164 -3827 0
4161 -4162 -4163 4164 -3827 0
-4161 -4162 3827 0
-4161 -4163 3827 0
4161 4162 3827 0
4161 4163 3827 0
-4164 3827 0
4161 -4162 -4163 4164 -3828 0
-4161 -4162 -4163 -4164 -3828 0
-4161 4164 3828 0
4161 -4164 3828 0
4162 3828 0
4163 3828 0
-4165 4166 4167 4168 -3829 0
4165 -4166 -4167 4168 -3829 0
-4165 -4166 3829 0
-4165 -4167 3829 0
4165 4166 3829 0
4165 4167 3829 0
-4168 3829 0
4165 -4166 -4167 4168 -3830 0
-4165 -4166 -4167 -4168 -3830 0
-4165 4168 3830 0
4165 -4168 3830 0
4166 3830 0
4167 3830 0
-4169 4170 4171 4172 -3831 0
4169 -4170 -4171 4172 -3831 0
-4169 -4170 3831 0
-4169 -4171 3831 0
4169 4170 3831 0
4169 4171 3831 0
-4172 3831 0
4169 -4170 -4171 4172 -3832 0
-4169 -4170 -4171 -4172 -3832 0
-4169 4172 3832 0
4169 -4172 3832 0
4170 3832 0
4171 3832 0
-4173 4174 4175 4176 -3833 0
4173 -4174 -4175 4176 -3833 0
-4173 -4174 3833 0
-4173 -4175 3833 0
4173 4174 3833 0
4173 4175 3833 0
-4176 3833 0
4173 -4174 -4175 4176 -3834 0
-4173 -4174 -4175 -4176 -3834 0
-4173 4176 3834 0
4173 -4176 3834 0
4174 3834 0
4175 3834 0
-4177 4178 4179 4180 -3835 0
4177 -4178 -4179 4180 -3835 0
-4177 -4178 3835 0
-4177 -4179 3835 0
4177 4178 3835 0
4177 4179 3835 0
-4180 3835 0
4177 -4178 -4179 4180 -3836 0
-4177 -4178 -4179 -4180 -3836 0
-4177 4180 3836 0
4177 -4180 3836 0
4178 3836 0
4179 3836 0
-4181 4182 4183 4184 -3837 0
4181 -4182 -4183 4184 -3837 0
-4181 -4182 3837 0
-4181 -4183 3837 0
4181 4182 3837 0
4181 4183 3837 0
-4184 3837 0
4181 -4182 -4183 4184 -3838 0
-4181 -4182 -4183 -4184 -3838 0
-4181 4184 3838 0
4181 -4184 3838 0
4182 3838 0
4183 3838 0
-4185 4186 4187 4188 -3839 0
4185 -4186 -4187 4188 -3839 0
-4185 -4186 3839 0
-4185 -4187 3839 0
4185 4186 3839 0
4185 4187 3839 0
-4188 3839 0
4185 -4186 -4187 4188 -3840 0
-4185 -4186 -4187 -4188 -3840 0
-4185 4188 3840 0
4185 -4188 3840 0
4186 3840 0
4187 3840 0
-4189 4190 4191 4192 -3841 0
4189 -4190 -4191 4192 -3841 0
-4189 -4190 3841 0
-4189 -4191 3841 0
4189 4190 3841 0
4189 4191 3841 0
-4192 3841 0
4189 -4190 -4191 4192 -3842 0
-4189 -4190 -4191 -4192 -3842 0
-4189 4192 3842 0
4189 -4192 3842 0
4190 3842 0
4191 3842 0
129 -130 181 182 -3843 0
-129 130 181 -182 -3843 0
-129 -130 3843 0
-129 182 3843 0
129 130 3843 0
129 -182 3843 0
-181 3843 0
-129 130 181 -182 -3844 0
-129 -130 -181 -182 -3844 0
-130 181 3844 0
130 -181 3844 0
129 3844 0
182 3844 0
-4193 4194 4195 4196 -3845 0
4193 -4194 -4195 4196 -3845 0
-4193 -4194 3845 0
-4193 -4195 3845 0
4193 4194 3845 0
4193 4195 3845 0
-4196 3845 0
4193 -4194 -4195 4196 -3846 0
-4193 -4194 -4195 -4196 -3846 0
-4193 4196 3846 0
4193 -4196 3846 0
4194 3846 0
4195 3846 0
125 -126 4197 4198 -3847 0
-125 126 -4197 4198 -3847 0
-125 -126 3847 0
-125 4197 3847 0
125 126 3847 0
125 -4197 3847 0
-4198 3847 0
-125 126 -4197 4198 -3848 0
-125 -126 -4197 -4198 -3848 0
-126 4198 3848 0
126 -4198 3848 0
125 3848 0
4197 3848 0
241 -242 4197 4198 -3849 0
-241 242 -4197 4198 -3849 0
-241 -242 3849 0
-241 4197 3849 0
241 242 3849 0
241 -4197 3849 0
-4198 3849 0
-241 242 -4197 4198 -3850 0
-241 -242 -4197 -4198 -3850 0
-242 4198 3850 0
242 -4198 3850 0
241 3850 0
4197 3850 0
243 -244 4197 4198 -3851 0
-243 244 -4197 4198 -3851 0
-243 -244 3851 0
-243 4197 3851 0
243 244 3851 0
243 -4197 3851 0
-4198 3851 0
-243 244 -4197 4198 -3852 0
-243 -244 -4197 -4198 -3852 0
-244 4198 3852 0
244 -4198 3852 0
243 3852 0
4197 3852 0
-4199 4200 4201 4202 -3853 0
4199 -4200 -4201 4202 -3853 0
-4199 -4200 3853 0
-4199 -4201 3853 0
4199 4200 3853 0
4199 4201 3853 0
-4202 3853 0
4199 -4200 -4201 4202 -3854 0
-4199 -4200 -4201 -4202 -3854 0
-4199 4202 3854 0
4199 -4202 3854 0
4200 3854 0
4201 3854 0
201 -202 203 204 -3855 0
-201 202 203 -204 -3855 0
-201 -202 3855 0
-201 204 3855 0
201 202 3855 0
201 -204 3855 0
-203 3855 0
-201 202 203 -204 -3856 0
-201 -202 -203 -204 -3856 0
-202 203 3856 0
202 -203 3856 0
201 3856 0
204 3856 0
-4203 4204 4205 4206 -3857 0
4203 -4204 -4205 4206 -3857 0
-4203 -4204 3857 0
-4203 -4205 3857 0
4203 4204 3857 0
4203 4205 3857 0
-4206 3857 0
4203 -4204 -4205 4206 -3858 0
-4203 -4204 -4205 -4206 -3858 0
-4203 4206 3858 0
4203 -4206 3858 0
4204 3858 0
4205 3858 0
181 -182 4207 4208 -3859 0
-181 182 -4207 4208 -3859 0
-181 -182 3859 0
-181 4207 3859 0
181 182 3859 0
181 -4207 3859 0
-4208 3859 0
-181 182 -4207 4208 -3860 0
-181 -182 -4207 -4208 -3860 0
-182 4208 3860 0
182 -4208 3860 0
181 3860 0
4207 3860 0
-4209 4210 4211 4212 -3861 0
4209 -4210 -4211 4212 -3861 0
-4209 -4210 3861 0
-4209 -4211 3861 0
4209 4210 3861 0
4209 4211 3861 0
-4212 3861 0
4209 -4210 -4211 4212 -3862 0
-4209 -4210 -4211 -4212 -3862 0
-4209 4212 3862 0
4209 -4212 3862 0
4210 3862 0
4211 3862 0
221 -222 4213 4214 -3863 0
-221 222 -4213 4214 -3863 0
-221 -222 3863 0
-221 4213 3863 0
221 222 3863 0
221 -4213 3863 0
-4214 3863 0
-221 222 -4213 4214 -3864 0
-221 -222 -4213 -4214 -3864 0
-222 4214 3864 0
222 -4214 3864 0
221 3864 0
4213 3864 0
-4215 4216 4217 4218 -3865 0
4215 -4216 -4217 4218 -3865 0
-4215 -4216 3865 0
-4215 -4217 3865 0
4215 4216 3865 0
4215 4217 3865 0
-4218 3865 0
4215 -4216 -4217 4218 -3866 0
-4215 -4216 -4217 -4218 -3866 0
-4215 4218 3866 0
4215 -4218 3866 0
4216 3866 0
4217 3866 0
247 -248 4219 4220 -3867 0
-247 248 -4219 4220 -3867 0
-247 -248 3867 0
-247 4219 3867 0
247 248 3867 0
247 -4219 3867 0
-4220 3867 0
-247 248 -4219 4220 -3868 0
-247 -248 -4219 -4220 -3868 0
-248 4220 3868 0
248 -4220 3868 0
247 3868 0
4219 3868 0
-4221 4222 4223 4224 -3869 0
4221 -4222 -4223 4224 -3869 0
-4221 -4222 3869 0
-4221 -4223 3869 0
4221 4222 3869 0
4221 4223 3869 0
-4224 3869 0
4221 -4222 -4223 4224 -3870 0
-4221 -4222 -4223 -4224 -3870 0
-4221 4224 3870 0
4221 -4224 3870 0
4222 3870 0
4223 3870 0
-4225 4226 4227 4228 -3871 0
4225 -4226 -4227 4228 -3871 0
-4225 -4226 3871 0
-4225 -4227 3871 0
4225 4226 3871 0
4225 4227 3871 0
-4228 3871 0
4225 -4226 -4227 4228 -3872 0
-4225 -4226 -4227 -4228 -3872 0
-4225 4228 3872 0
4225 -4228 3872 0
4226 3872 0
4227 3872 0
-3547 3548 3867 3868 -3873 0
3547 -3548 -3867 3868 -3873 0
-3547 -3548 3873 0
-3547 -3867 3873 0
3547 3548 3873 0
3547 3867 3873 0
-3868 3873 0
3547 -3548 -3867 3868 -3874 0
-3547 -3548 -3867 -3868 -3874 0
-3547 3868 3874 0
3547 -3868 3874 0
3548 3874 0
3867 3874 0
-4229 4230 4231 4232 -3875 0
4229 -4230 -4231 4232 -3875 0
-4229 -4230 3875 0
-4229 -4231 3875 0
4229 4230 3875 0
4229 4231 3875 0
-4232 3875 0
4229 -4230 -4231 4232 -3876 0
-4229 -4230 -4231 -4232 -3876 0
-4229 4232 3876 0
4229 -4232 3876 0
4230 3876 0
4231 3876 0
-4233 4234 4235 4236 -3877 0
4233 -4234 -4235 4236 -3877 0
-4233 -4234 3877 0
-4233 -4235 3877 0
4233 4234 3877 0
4233 4235 3877 0
-4236 3877 0
4233 -4234 -4235 4236 -3878 0
-4233 -4234 -4235 -4236 -3878 0
-4233 4236 3878 0
4233 -4236 3878 0
4234 3878 0
4235 3878 0
141 -142 3535 3536 -3879 0
-141 142 -3535 3536 -3879 0
-141 -142 3879 0
-141 3535 3879 0
141 142 3879 0
141 -3535 3879 0
-3536 3879 0
-141 142 -3535 3536 -3880 0
-141 -142 -3535 -3536 -3880 0
-142 3536 3880 0
142 -3536 3880 0
141 3880 0
3535 3880 0
-4237 4238 4239 4240 -3881 0
4237 -4238 -4239 4240 -3881 0
-4237 -4238 3881 0
-4237 -4239 3881 0
4237 4238 3881 0
4237 4239 3881 0
-4240 3881 0
4237 -4238 -4239 4240 -3882 0
-4237 -4238 -4239 -4240 -3882 0
-4237 4240 3882 0
4237 -4240 3882 0
4238 3882 0
4239 3882 0
-3535 3536 4241 4242 -3883 0
3535 -3536 -4241 4242 -3883 0
-3535 -3536 3883 0
-3535 -4241 3883 0
3535 3536 3883 0
3535 4241 3883 0
-4242 3883 0
3535 -3536 -4241 4242 -3884 0
-3535 -3536 -4241 -4242 -3884 0
-3535 4242 3884 0
3535 -4242 3884 0
3536 3884 0
4241 3884 0
-4243 4244 4245 4246 -3885 0
4243 -4244 -4245 4246 -3885 0
-4243 -4244 3885 0
-4243 -4245 3885 0
4243 4244 3885 0
4243 4245 3885 0
-4246 3885 0
4243 -4244 -4245 4246 -3886 0
-4243 -4244 -4245 -4246 -3886 0
-4243 4246 3886 0
4243 -4246 3886 0
4244 3886 0
4245 3886 0
93 -94 193 194 -3887 0
-93 94 193 -194 -3887 0
-93 -94 3887 0
-93 194 3887 0
93 94 3887 0
93 -194 3887 0
-193 3887 0
-93 94 193 -194 -3888 0
-93 -94 -193 -194 -3888 0
-94 193 3888 0
94 -193 3888 0
93 3888 0
194 3888 0
-4247 4248 4249 4250 -3889 0
4247 -4248 -4249 4250 -3889 0
-4247 -4248 3889 0
-4247 -4249 3889 0
4247 4248 3889 0
4247 4249 3889 0
-4250 3889 0
4247 -4248 -4249 4250 -3890 0
-4247 -4248 -4249 -4250 -3890 0
-4247 4250 3890 0
4247 -4250 3890 0
4248 3890 0
4249 3890 0
21 -22 59 60 -3891 0
-21 22 59 -60 -3891 0
-21 -22 3891 0
-21 60 3891 0
21 22 3891 0
21 -60 3891 0
-59 3891 0
-21 22 59 -60 -3892 0
-21 -22 -59 -60 -3892 0
-22 59 3892 0
22 -59 3892 0
21 3892 0
60 3892 0
25 -26 59 60 -3893 0
-25 26 59 -60 -3893 0
-25 -26 3893 0
-25 60 3893 0
25 26 3893 0
25 -60 3893 0
-59 3893 0
-25 26 59 -60 -3894 0
-25 -26 -59 -60 -3894 0
-26 59 3894 0
26 -59 3894 0
25 3894 0
60 3894 0
-3263 3264 3897 3898 -3895 0
3263 -3264 -3897 3898 -3895 0
-3263 -3264 3895 0
-3263 -3897 3895 0
3263 3264 3895 0
3263 3897 3895 0
-3898 3895 0
3263 -3264 -3897 3898 -3896 0
-3263 -3264 -3897 -3898 -3896 0
-3263 3898 3896 0
3263 -3898 3896 0
3264 3896 0
3897 3896 0
-4251 4252 4253 4254 -3897 0
4251 -4252 -4253 4254 -3897 0
-4251 -4252 3897 0
-4251 -4253 3897 0
4251 4252 3897 0
4251 4253 3897 0
-4254 3897 0
4251 -4252 -4253 4254 -3898 0
-4251 -4252 -4253 -4254 -3898 0
-4251 4254 3898 0
4251 -4254 3898 0
4252 3898 0
4253 3898 0
201 -202 3263 3264 -3899 0
-201 202 -3263 3264 -3899 0
-201 -202 3899 0
-201 3263 3899 0
201 202 3899 0
201 -3263 3899 0
-3264 3899 0
-201 202 -3263 3264 -3900 0
-201 -202 -3263 -3264 -3900 0
-202 3264 3900 0
202 -3264 3900 0
201 3900 0
3263 3900 0
201 -202 3535 3536 -3901 0
-201 202 -3535 3536 -3901 0
-201 -202 3901 0
-201 3535 3901 0
201 202 3901 0
201 -3535 3901 0
-3536 3901 0
-201 202 -3535 3536 -3902 0
-201 -202 -3535 -3536 -3902 0
-202 3536 3902 0
202 -3536 3902 0
201 3902 0
3535 3902 0
201 -202 203 204 -3903 0
-201 202 203 -204 -3903 0
-201 -202 3903 0
-201 204 3903 0
201 202 3903 0
201 -204 3903 0
-203 3903 0
-201 202 203 -204 -3904 0
-201 -202 -203 -204 -3904 0
-202 203 3904 0
202 -203 3904 0
201 3904 0
204 3904 0
123 -124 4255 4256 -3905 0
-123 124 -4255 4256 -3905 0
-123 -124 3905 0
-123 4255 3905 0
123 124 3905 0
123 -4255 3905 0
-4256 3905 0
-123 124 -4255 4256 -3906 0
-123 -124 -4255 -4256 -3906 0
-124 4256 3906 0
124 -4256 3906 0
123 3906 0
4255 3906 0
49 -50 61 62 -3907 0
-49 50 61 -62 -3907 0
-49 -50 3907 0
-49 62 3907 0
49 50 3907 0
49 -62 3907 0
-61 3907 0
-49 50 61 -62 -3908 0
-49 -50 -61 -62 -3908 0
-50 61 3908 0
50 -61 3908 0
49 3908 0
62 3908 0
-4257 4258 4259 4260 -3909 0
4257 -4258 -4259 4260 -3909 0
-4257 -4258 3909 0
-4257 -4259 3909 0
4257 4258 3909 0
4257 4259 3909 0
-4260 3909 0
4257 -4258 -4259 4260 -3910 0
-4257 -4258 -4259 -4260 -3910 0
-4257 4260 3910 0
4257 -4260 3910 0
4258 3910 0
4259 3910 0
-4261 4262 4263 4264 -3911 0
4261 -4262 -4263 4264 -3911 0
-4261 -4262 3911 0
-4261 -4263 3911 0
4261 4262 3911 0
4261 4263 3911 0
-4264 3911 0
4261 -4262 -4263 4264 -3912 0
-4261 -4262 -4263 -4264 -3912 0
-4261 4264 3912 0
4261 -4264 3912 0
4262 3912 0
4263 3912 0
197 -198 4265 4266 -3913 0
-197 198 -4265 4266 -3913 0
-197 -198 3913 0
-197 4265 3913 0
197 198 3913 0
197 -4265 3913 0
-4266 3913 0
-197 198 -4265 4266 -3914 0
-197 -198 -4265 -4266 -3914 0
-198 4266 3914 0
198 -4266 3914 0
197 3914 0
4265 3914 0
197 -198 4267 4268 -3915 0
-197 198 -4267 4268 -3915 0
-197 -198 3915 0
-197 4267 3915 0
197 198 3915 0
197 -4267 3915 0
-4268 3915 0
-197 198 -4267 4268 -3916 0
-197 -198 -4267 -4268 -3916 0
-198 4268 3916 0
198 -4268 3916 0
197 3916 0
4267 3916 0
-4269 4270 4271 4272 -3917 0
4269 -4270 -4271 4272 -3917 0
-4269 -4270 3917 0
-4269 -4271 3917 0
4269 4270 3917 0
4269 4271 3917 0
-4272 3917 0
4269 -4270 -4271 4272 -3918 0
-4269 -4270 -4271 -4272 -3918 0
-4269 4272 3918 0
4269 -4272 3918 0
4270 3918 0
4271 3918 0
149 -150 3263 3264 -3919 0
-149 150 -3263 3264 -3919 0
-149 -150 3919 0
-149 3263 3919 0
149 150 3919 0
149 -3263 3919 0
-3264 3919 0
-149 150 -3263 3264 -3920 0
-149 -150 -3263 -3264 -3920 0
-150 3264 3920 0
150 -3264 3920 0
149 3920 0
3263 3920 0
-4277 4278 4283 4284 -3921 0
4277 -4278 -4283 4284 -3921 0
-4277 -4278 3921 0
-4277 -4283 3921 0
4277 4278 3921 0
4277 4283 3921 0
-4284 3921 0
4277 -4278 -4283 4284 -3922 0
-4277 -4278 -4283 -4284 -3922 0
-4277 4284 3922 0
4277 -4284 3922 0
4278 3922 0
4283 3922 0
27 -28 3859 3860 -3923 0
-27 28 -3859 3860 -3923 0
-27 -28 3923 0
-27 3859 3923 0
27 28 3923 0
27 -3859 3923 0
-3860 3923 0
-27 28 -3859 3860 -3924 0
-27 -28 -3859 -3860 -3924 0
-28 3860 3924 0
28 -3860 3924 0
27 3924 0
3859 3924 0
-4289 4290 4295 4296 -3925 0
4289 -4290 -4295 4296 -3925 0
-4289 -4290 3925 0
-4289 -4295 3925 0
4289 4290 3925 0
4289 4295 3925 0
-4296 3925 0
4289 -4290 -4295 4296 -3926 0
-4289 -4290 -4295 -4296 -3926 0
-4289 4296 3926 0
4289 -4296 3926 0
4290 3926 0
4295 3926 0
-4301 4302 4307 4308 -3927 0
4301 -4302 -4307 4308 -3927 0
-4301 -4302 3927 0
-4301 -4307 3927 0
4301 4302 3927 0
4301 4307 3927 0
-4308 3927 0
4301 -4302 -4307 4308 -3928 0
-4301 -4302 -4307 -4308 -3928 0
-4301 4308 3928 0
4301 -4308 3928 0
4302 3928 0
4307 3928 0
-4313 4314 4319 4320 -3929 0
4313 -4314 -4319 4320 -3929 0
-4313 -4314 3929 0
-4313 -4319 3929 0
4313 4314 3929 0
4313 4319 3929 0
-4320 3929 0
4313 -4314 -4319 4320 -3930 0
-4313 -4314 -4319 -4320 -3930 0
-4313 4320 3930 0
4313 -4320 3930 0
4314 3930 0
4319 3930 0
-4325 4326 4331 4332 -3931 0
4325 -4326 -4331 4332 -3931 0
-4325 -4326 3931 0
-4325 -4331 3931 0
4325 4326 3931 0
4325 4331 3931 0
-4332 3931 0
4325 -4326 -4331 4332 -3932 0
-4325 -4326 -4331 -4332 -3932 0
-4325 4332 3932 0
4325 -4332 3932 0
4326 3932 0
4331 3932 0
167 -168 4333 4334 -3933 0
-167 168 -4333 4334 -3933 0
-167 -168 3933 0
-167 4333 3933 0
167 168 3933 0
167 -4333 3933 0
-4334 3933 0
-167 168 -4333 4334 -3934 0
-167 -168 -4333 -4334 -3934 0
-168 4334 3934 0
168 -4334 3934 0
167 3934 0
4333 3934 0
171 -172 195 196 -3935 0
-171 172 195 -196 -3935 0
-171 -172 3935 0
-171 196 3935 0
171 172 3935 0
171 -196 3935 0
-195 3935 0
-171 172 195 -196 -3936 0
-171 -172 -195 -196 -3936 0
-172 195 3936 0
172 -195 3936 0
171 3936 0
196 3936 0
-4339 4340 4345 4346 -3937 0
4339 -4340 -4345 4346 -3937 0
-4339 -4340 3937 0
-4339 -4345 3937 0
4339 4340 3937 0
4339 4345 3937 0
-4346 3937 0
4339 -4340 -4345 4346 -3938 0
-4339 -4340 -4345 -4346 -3938 0
-4339 4346 3938 0
4339 -4346 3938 0
4340 3938 0
4345 3938 0
-4351 4352 4357 4358 -3939 0
4351 -4352 -4357 4358 -3939 0
-4351 -4352 3939 0
-4351 -4357 3939 0
4351 4352 3939 0
4351 4357 3939 0
-4358 3939 0
4351 -4352 -4357 4358 -3940 0
-4351 -4352 -4357 -4358 -3940 0
-4351 4358 3940 0
4351 -4358 3940 0
4352 3940 0
4357 3940 0
-4363 4364 4369 4370 -3941 0
4363 -4364 -4369 4370 -3941 0
-4363 -4364 3941 0
-4363 -4369 3941 0
4363 4364 3941 0
4363 4369 3941 0
-4370 3941 0
4363 -4364 -4369 4370 -3942 0
-4363 -4364 -4369 -4370 -3942 0
-4363 4370 3942 0
4363 -4370 3942 0
4364 3942 0
4369 3942 0
-4371 4372 4377 4378 -3943 0
4371 -4372 -4377 4378 -3943 0
-4371 -4372 3943 0
-4371 -4377 3943 0
4371 4372 3943 0
4371 4377 3943 0
-4378 3943 0
4371 -4372 -4377 4378 -3944 0
-4371 -4372 -4377 -4378 -3944 0
-4371 4378 3944 0
4371 -4378 3944 0
4372 3944 0
4377 3944 0
-4383 4384 4389 4390 -3945 0
4383 -4384 -4389 4390 -3945 0
-4383 -4384 3945 0
-4383 -4389 3945 0
4383 4384 3945 0
4383 4389 3945 0
-4390 3945 0
4383 -4384 -4389 4390 -3946 0
-4383 -4384 -4389 -4390 -3946 0
-4383 4390 3946 0
4383 -4390 3946 0
4384 3946 0
4389 3946 0
1 -2 3249 3250 -3947 0
-1 2 -3249 3250 -3947 0
-1 -2 3947 0
-1 3249 3947 0
1 2 3947 0
1 -3249 3947 0
-3250 3947 0
-1 2 -3249 3250 -3948 0
-1 -2 -3249 -3250 -3948 0
-2 3250 3948 0
2 -3250 3948 0
1 3948 0
3249 3948 0
-4395 4396 4401 4402 -3949 0
4395 -4396 -4401 4402 -3949 0
-4395 -4396 3949 0
-4395 -4401 3949 0
4395 4396 3949 0
4395 4401 3949 0
-4402 3949 0
4395 -4396 -4401 4402 -3950 0
-4395 -4396 -4401 -4402 -3950 0
-4395 4402 3950 0
4395 -4402 3950 0
4396 3950 0
4401 3950 0
-4407 4408 4411 4412 -3951 0
4407 -4408 -4411 4412 -3951 0
-4407 -4408 3951 0
-4407 -4411 3951 0
4407 4408 3951 0
4407 4411 3951 0
-4412 3951 0
4407 -4408 -4411 4412 -3952 0
-4407 -4408 -4411 -4412 -3952 0
-4407 4412 3952 0
4407 -4412 3952 0
4408 3952 0
4411 3952 0
-3973 3974 4417 4418 -3953 0
3973 -3974 -4417 4418 -3953 0
-3973 -3974 3953 0
-3973 -4417 3953 0
3973 3974 3953 0
3973 4417 3953 0
-4418 3953 0
3973 -3974 -4417 4418 -3954 0
-3973 -3974 -4417 -4418 -3954 0
-3973 4418 3954 0
3973 -4418 3954 0
3974 3954 0
4417 3954 0
-4421 4422 4425 4426 -3955 0
4421 -4422 -4425 4426 -3955 0
-4421 -4422 3955 0
-4421 -4425 3955 0
4421 4422 3955 0
4421 4425 3955 0
-4426 3955 0
4421 -4422 -4425 4426 -3956 0
-4421 -4422 -4425 -4426 -3956 0
-4421 4426 3956 0
4421 -4426 3956 0
4422 3956 0
4425 3956 0
-4403 4404 4431 4432 -3957 0
4403 -4404 -4431 4432 -3957 0
-4403 -4404 3957 0
-4403 -4431 3957 0
4403 4404 3957 0
4403 4431 3957 0
-4432 3957 0
4403 -4404 -4431 4432 -3958 0
-4403 -4404 -4431 -4432 -3958 0
-4403 4432 3958 0
4403 -4432 3958 0
4404 3958 0
4431 3958 0
-4437 4438 4443 4444 -3959 0
4437 -4438 -4443 4444 -3959 0
-4437 -4438 3959 0
-4437 -4443 3959 0
4437 4438 3959 0
4437 4443 3959 0
-4444 3959 0
4437 -4438 -4443 4444 -3960 0
-4437 -4438 -4443 -4444 -3960 0
-4437 4444 3960 0
4437 -4444 3960 0
4438 3960 0
4443 3960 0
-3973 3974 4445 4446 -3961 0
3973 -3974 -4445 4446 -3961 0
-3973 -3974 3961 0
-3973 -4445 3961 0
3973 3974 3961 0
3973 4445 3961 0
-4446 3961 0
3973 -3974 -4445 4446 -3962 0
-3973 -3974 -4445 -4446 -3962 0
-3973 4446 3962 0
3973 -4446 3962 0
3974 3962 0
4445 3962 0
-4449 4450 4453 4454 -3963 0
4449 -4450 -4453 4454 -3963 0
-4449 -4450 3963 0
-4449 -4453 3963 0
4449 4450 3963 0
4449 4453 3963 0
-4454 3963 0
4449 -4450 -4453 4454 -3964 0
-4449 -4450 -4453 -4454 -3964 0
-4449 4454 3964 0
4449 -4454 3964 0
4450 3964 0
4453 3964 0
-4459 4460 4461 4462 -3965 0
4459 -4460 -4461 4462 -3965 0
-4459 -4460 3965 0
-4459 -4461 3965 0
4459 4460 3965 0
4459 4461 3965 0
-4462 3965 0
4459 -4460 -4461 4462 -3966 0
-4459 -4460 -4461 -4462 -3966 0
-4459 4462 3966 0
4459 -4462 3966 0
4460 3966 0
4461 3966 0
-4465 4466 4469 4470 -3967 0
4465 -4466 -4469 4470 -3967 0
-4465 -4466 3967 0
-4465 -4469 3967 0
4465 4466 3967 0
4465 4469 3967 0
-4470 3967 0
4465 -4466 -4469 4470 -3968 0
-4465 -4466 -4469 -4470 -3968 0
-4465 4470 3968 0
4465 -4470 3968 0
4466 3968 0
4469 3968 0
-4459 4460 4473 4474 -3969 0
4459 -4460 -4473 4474 -3969 0
-4459 -4460 3969 0
-4459 -4473 3969 0
4459 4460 3969 0
4459 4473 3969 0
-4474 3969 0
4459 -4460 -4473 4474 -3970 0
-4459 -4460 -4473 -4474 -3970 0
-4459 4474 3970 0
4459 -4474 3970 0
4460 3970 0
4473 3970 0
-4477 4478 4481 4482 -3971 0
4477 -4478 -4481 4482 -3971 0
-4477 -4478 3971 0
-4477 -4481 3971 0
4477 4478 3971 0
4477 4481 3971 0
-4482 3971 0
4477 -4478 -4481 4482 -3972 0
-4477 -4478 -4481 -4482 -3972 0
-4477 4482 3972 0
4477 -4482 3972 0
4478 3972 0
4481 3972 0
-4413 4414 4415 4416 -3973 0
4413 -4414 -4415 4416 -3973 0
-4413 -4414 3973 0
-4413 -4415 3973 0
4413 4414 3973 0
4413 4415 3973 0
-4416 3973 0
4413 -4414 -4415 4416 -3974 0
-4413 -4414 -4415 -4416 -3974 0
-4413 4416 3974 0
4413 -4416 3974 0
4414 3974 0
4415 3974 0
-4471 4472 4491 4492 -3975 0
4471 -4472 -4491 4492 -3975 0
-4471 -4472 3975 0
-4471 -4491 3975 0
4471 4472 3975 0
4471 4491 3975 0
-4492 3975 0
4471 -4472 -4491 4492 -3976 0
-4471 -4472 -4491 -4492 -3976 0
-4471 4492 3976 0
4471 -4492 3976 0
4472 3976 0
4491 3976 0
-4471 4472 4493 4494 -3977 0
4471 -4472 -4493 4494 -3977 0
-4471 -4472 3977 0
-4471 -4493 3977 0
4471 4472 3977 0
4471 4493 3977 0
-4494 3977 0
4471 -4472 -4493 4494 -3978 0
-4471 -4472 -4493 -4494 -3978 0
-4471 4494 3978 0
4471 -4494 3978 0
4472 3978 0
4493 3978 0
-4495 4496 4497 4498 -3979 0
4495 -4496 -4497 4498 -3979 0
-4495 -4496 3979 0
-4495 -4497 3979 0
4495 4496 3979 0
4495 4497 3979 0
-4498 3979 0
4495 -4496 -4497 4498 -3980 0
-4495 -4496 -4497 -4498 -3980 0
-4495 4498 3980 0
4495 -4498 3980 0
4496 3980 0
4497 3980 0
-4471 4472 4499 4500 -3981 0
4471 -4472 -4499 4500 -3981 0
-4471 -4472 3981 0
-4471 -4499 3981 0
4471 4472 3981 0
4471 4499 3981 0
-4500 3981 0
4471 -4472 -4499 4500 -3982 0
-4471 -4472 -4499 -4500 -3982 0
-4471 4500 3982 0
4471 -4500 3982 0
4472 3982 0
4499 3982 0
-3973 3974 4501 4502 -3983 0
3973 -3974 -4501 4502 -3983 0
-3973 -3974 3983 0
-3973 -4501 3983 0
3973 3974 3983 0
3973 4501 3983 0
-4502 3983 0
3973 -3974 -4501 4502 -3984 0
-3973 -3974 -4501 -4502 -3984 0
-3973 4502 3984 0
3973 -4502 3984 0
3974 3984 0
4501 3984 0
165 -166 3973 3974 -3985 0
-165 166 -3973 3974 -3985 0
-165 -166 3985 0
-165 3973 3985 0
165 166 3985 0
165 -3973 3985 0
-3974 3985 0
-165 166 -3973 3974 -3986 0
-165 -166 -3973 -3974 -3986 0
-166 3974 3986 0
166 -3974 3986 0
165 3986 0
3973 3986 0
113 -114 4503 4504 -3987 0
-113 114 -4503 4504 -3987 0
-113 -114 3987 0
-113 4503 3987 0
113 114 3987 0
113 -4503 3987 0
-4504 3987 0
-113 114 -4503 4504 -3988 0
-113 -114 -4503 -4504 -3988 0
-114 4504 3988 0
114 -4504 3988 0
113 3988 0
4503 3988 0
111 -112 113 114 -3989 0
-111 112 113 -114 -3989 0
-111 -112 3989 0
-111 114 3989 0
111 112 3989 0
111 -114 3989 0
-113 3989 0
-111 112 113 -114 -3990 0
-111 -112 -113 -114 -3990 0
-112 113 3990 0
112 -113 3990 0
111 3990 0
114 3990 0
109 -110 111 112 -3991 0
-109 110 111 -112 -3991 0
-109 -110 3991 0
-109 112 3991 0
109 110 3991 0
109 -112 3991 0
-111 3991 0
-109 110 111 -112 -3992 0
-109 -110 -111 -112 -3992 0
-110 111 3992 0
110 -111 3992 0
109 3992 0
112 3992 0
113 -114 179 180 -3993 0
-113 114 179 -180 -3993 0
-113 -114 3993 0
-113 180 3993 0
113 114 3993 0
113 -180 3993 0
-179 3993 0
-113 114 179 -180 -3994 0
-113 -114 -179 -180 -3994 0
-114 179 3994 0
114 -179 3994 0
113 3994 0
180 3994 0
33 -34 4505 4506 -3995 0
-33 34 -4505 4506 -3995 0
-33 -34 3995 0
-33 4505 3995 0
33 34 3995 0
33 -4505 3995 0
-4506 3995 0
-33 34 -4505 4506 -3996 0
-33 -34 -4505 -4506 -3996 0
-34 4506 3996 0
34 -4506 3996 0
33 3996 0
4505 3996 0
111 -112 113 114 -3997 0
-111 112 113 -114 -3997 0
-111 -112 3997 0
-111 114 3997 0
111 112 3997 0
111 -114 3997 0
-113 3997 0
-111 112 113 -114 -3998 0
-111 -112 -113 -114 -3998 0
-112 113 3998 0
112 -113 3998 0
111 3998 0
114 3998 0
109 -110 113 114 -3999 0
-109 110 113 -114 -3999 0
-109 -110 3999 0
-109 114 3999 0
109 110 3999 0
109 -114 3999 0
-113 3999 0
-109 110 113 -114 -4000 0
-109 -110 -113 -114 -4000 0
-110 113 4000 0
110 -113 4000 0
109 4000 0
114 4000 0
109 -110 111 112 -4001 0
-109 110 111 -112 -4001 0
-109 -110 4001 0
-109 112 4001 0
109 110 4001 0
109 -112 4001 0
-111 4001 0
-109 110 111 -112 -4002 0
-109 -110 -111 -112 -4002 0
-110 111 4002 0
110 -111 4002 0
109 4002 0
112 4002 0
141 -142 4507 4508 -4003 0
-141 142 -4507 4508 -4003 0
-141 -142 4003 0
-141 4507 4003 0
141 142 4003 0
141 -4507 4003 0
-4508 4003 0
-141 142 -4507 4508 -4004 0
-141 -142 -4507 -4508 -4004 0
-142 4508 4004 0
142 -4508 4004 0
141 4004 0
4507 4004 0
-4511 4512 4515 4516 -4005 0
4511 -4512 -4515 4516 -4005 0
-4511 -4512 4005 0
-4511 -4515 4005 0
4511 4512 4005 0
4511 4515 4005 0
-4516 4005 0
4511 -4512 -4515 4516 -4006 0
-4511 -4512 -4515 -4516 -4006 0
-4511 4516 4006 0
4511 -4516 4006 0
4512 4006 0
4515 4006 0
7 -8 107 108 -4007 0
-7 8 107 -108 -4007 0
-7 -8 4007 0
-7 108 4007 0
7 8 4007 0
7 -108 4007 0
-107 4007 0
-7 8 107 -108 -4008 0
-7 -8 -107 -108 -4008 0
-8 107 4008 0
8 -107 4008 0
7 4008 0
108 4008 0
-4517 4518 4519 4520 -4009 0
4517 -4518 -4519 4520 -4009 0
-4517 -4518 4009 0
-4517 -4519 4009 0
4517 4518 4009 0
4517 4519 4009 0
-4520 4009 0
4517 -4518 -4519 4520 -4010 0
-4517 -4518 -4519 -4520 -4010 0
-4517 4520 4010 0
4517 -4520 4010 0
4518 4010 0
4519 4010 0
167 -168 169 170 -4011 0
-167 168 169 -170 -4011 0
-167 -168 4011 0
-167 170 4011 0
167 168 4011 0
167 -170 4011 0
-169 4011 0
-167 168 169 -170 -4012 0
-167 -168 -169 -170 -4012 0
-168 169 4012 0
168 -169 4012 0
167 4012 0
170 4012 0
171 -172 179 180 -4013 0
-171 172 179 -180 -4013 0
-171 -172 4013 0
-171 180 4013 0
171 172 4013 0
171 -180 4013 0
-179 4013 0
-171 172 179 -180 -4014 0
-171 -172 -179 -180 -4014 0
-172 179 4014 0
172 -179 4014 0
171 4014 0
180 4014 0
167 -168 171 172 -4015 0
-167 168 171 -172 -4015 0
-167 -168 4015 0
-167 172 4015 0
167 168 4015 0
167 -172 4015 0
-171 4015 0
-167 168 171 -172 -4016 0
-167 -168 -171 -172 -4016 0
-168 171 4016 0
168 -171 4016 0
167 4016 0
172 4016 0
169 -170 171 172 -4017 0
-169 170 171 -172 -4017 0
-169 -170 4017 0
-169 172 4017 0
169 170 4017 0
169 -172 4017 0
-171 4017 0
-169 170 171 -172 -4018 0
-169 -170 -171 -172 -4018 0
-170 171 4018 0
170 -171 4018 0
169 4018 0
172 4018 0
167 -168 179 180 -4019 0
-167 168 179 -180 -4019 0
-167 -168 4019 0
-167 180 4019 0
167 168 4019 0
167 -180 4019 0
-179 4019 0
-167 168 179 -180 -4020 0
-167 -168 -179 -180 -4020 0
-168 179 4020 0
168 -179 4020 0
167 4020 0
180 4020 0
-4521 4522 4523 4524 -4021 0
4521 -4522 -4523 4524 -4021 0
-4521 -4522 4021 0
-4521 -4523 4021 0
4521 4522 4021 0
4521 4523 4021 0
-4524 4021 0
4521 -4522 -4523 4524 -4022 0
-4521 -4522 -4523 -4524 -4022 0
-4521 4524 4022 0
4521 -4524 4022 0
4522 4022 0
4523 4022 0
167 -168 171 172 -4023 0
-167 168 171 -172 -4023 0
-167 -168 4023 0
-167 172 4023 0
167 168 4023 0
167 -172 4023 0
-171 4023 0
-167 168 171 -172 -4024 0
-167 -168 -171 -172 -4024 0
-168 171 4024 0
168 -171 4024 0
167 4024 0
172 4024 0
171 -172 179 180 -4025 0
-171 172 179 -180 -4025 0
-171 -172 4025 0
-171 180 4025 0
171 172 4025 0
171 -180 4025 0
-179 4025 0
-171 172 179 -180 -4026 0
-171 -172 -179 -180 -4026 0
-172 179 4026 0
172 -179 4026 0
171 4026 0
180 4026 0
-4051 4052 4039 4040 -4027 0
4051 -4052 -4039 4040 -4027 0
-4051 -4052 4027 0
-4051 -4039 4027 0
4051 4052 4027 0
4051 4039 4027 0
-4040 4027 0
4051 -4052 -4039 4040 -4028 0
-4051 -4052 -4039 -4040 -4028 0
-4051 4040 4028 0
4051 -4040 4028 0
4052 4028 0
4039 4028 0
-4529 4530 4531 4532 -4029 0
4529 -4530 -4531 4532 -4029 0
-4529 -4530 4029 0
-4529 -4531 4029 0
4529 4530 4029 0
4529 4531 4029 0
-4532 4029 0
4529 -4530 -4531 4532 -4030 0
-4529 -4530 -4531 -4532 -4030 0
-4529 4532 4030 0
4529 -4532 4030 0
4530 4030 0
4531 4030 0
71 -72 3735 3736 -4031 0
-71 72 -3735 3736 -4031 0
-71 -72 4031 0
-71 3735 4031 0
71 72 4031 0
71 -3735 4031 0
-3736 4031 0
-71 72 -3735 3736 -4032 0
-71 -72 -3735 -3736 -4032 0
-72 3736 4032 0
72 -3736 4032 0
71 4032 0
3735 4032 0
-4533 4534 4535 4536 -4033 0
4533 -4534 -4535 4536 -4033 0
-4533 -4534 4033 0
-4533 -4535 4033 0
4533 4534 4033 0
4533 4535 4033 0
-4536 4033 0
4533 -4534 -4535 4536 -4034 0
-4533 -4534 -4535 -4536 -4034 0
-4533 4536 4034 0
4533 -4536 4034 0
4534 4034 0
4535 4034 0
235 -236 4537 4538 -4035 0
-235 236 -4537 4538 -4035 0
-235 -236 4035 0
-235 4537 4035 0
235 236 4035 0
235 -4537 4035 0
-4538 4035 0
-235 236 -4537 4538 -4036 0
-235 -236 -4537 -4538 -4036 0
-236 4538 4036 0
236 -4538 4036 0
235 4036 0
4537 4036 0
-4051 4052 4039 4040 -4037 0
4051 -4052 -4039 4040 -4037 0
-4051 -4052 4037 0
-4051 -4039 4037 0
4051 4052 4037 0
4051 4039 4037 0
-4040 4037 0
4051 -4052 -4039 4040 -4038 0
-4051 -4052 -4039 -4040 -4038 0
-4051 4040 4038 0
4051 -4040 4038 0
4052 4038 0
4039 4038 0
-4525 4526 4527 4528 -4039 0
4525 -4526 -4527 4528 -4039 0
-4525 -4526 4039 0
-4525 -4527 4039 0
4525 4526 4039 0
4525 4527 4039 0
-4528 4039 0
4525 -4526 -4527 4528 -4040 0
-4525 -4526 -4527 -4528 -4040 0
-4525 4528 4040 0
4525 -4528 4040 0
4526 4040 0
4527 4040 0
-4539 4540 4541 4542 -4041 0
4539 -4540 -4541 4542 -4041 0
-4539 -4540 4041 0
-4539 -4541 4041 0
4539 4540 4041 0
4539 4541 4041 0
-4542 4041 0
4539 -4540 -4541 4542 -4042 0
-4539 -4540 -4541 -4542 -4042 0
-4539 4542 4042 0
4539 -4542 4042 0
4540 4042 0
4541 4042 0
-4543 4544 4545 4546 -4043 0
4543 -4544 -4545 4546 -4043 0
-4543 -4544 4043 0
-4543 -4545 4043 0
4543 4544 4043 0
4543 4545 4043 0
-4546 4043 0
4543 -4544 -4545 4546 -4044 0
-4543 -4544 -4545 -4546 -4044 0
-4543 4546 4044 0
4543 -4546 4044 0
4544 4044 0
4545 4044 0
65 -66 67 68 -4045 0
-65 66 67 -68 -4045 0
-65 -66 4045 0
-65 68 4045 0
65 66 4045 0
65 -68 4045 0
-67 4045 0
-65 66 67 -68 -4046 0
-65 -66 -67 -68 -4046 0
-66 67 4046 0
66 -67 4046 0
65 4046 0
68 4046 0
91 -92 231 232 -4047 0
-91 92 231 -232 -4047 0
-91 -92 4047 0
-91 232 4047 0
91 92 4047 0
91 -232 4047 0
-231 4047 0
-91 92 231 -232 -4048 0
-91 -92 -231 -232 -4048 0
-92 231 4048 0
92 -231 4048 0
91 4048 0
232 4048 0
175 -176 4551 4552 -4049 0
-175 176 -4551 4552 -4049 0
-175 -176 4049 0
-175 4551 4049 0
175 176 4049 0
175 -4551 4049 0
-4552 4049 0
-175 176 -4551 4552 -4050 0
-175 -176 -4551 -4552 -4050 0
-176 4552 4050 0
176 -4552 4050 0
175 4050 0
4551 4050 0
157 -158 3867 3868 -4051 0
-157 158 -3867 3868 -4051 0
-157 -158 4051 0
-157 3867 4051 0
157 158 4051 0
157 -3867 4051 0
-3868 4051 0
-157 158 -3867 3868 -4052 0
-157 -158 -3867 -3868 -4052 0
-158 3868 4052 0
158 -3868 4052 0
157 4052 0
3867 4052 0
73 -74 4553 4554 -4053 0
-73 74 -4553 4554 -4053 0
-73 -74 4053 0
-73 4553 4053 0
73 74 4053 0
73 -4553 4053 0
-4554 4053 0
-73 74 -4553 4554 -4054 0
-73 -74 -4553 -4554 -4054 0
-74 4554 4054 0
74 -4554 4054 0
73 4054 0
4553 4054 0
67 -68 73 74 -4055 0
-67 68 73 -74 -4055 0
-67 -68 4055 0
-67 74 4055 0
67 68 4055 0
67 -74 4055 0
-73 4055 0
-67 68 73 -74 -4056 0
-67 -68 -73 -74 -4056 0
-68 73 4056 0
68 -73 4056 0
67 4056 0
74 4056 0
73 -74 4051 4052 -4057 0
-73 74 -4051 4052 -4057 0
-73 -74 4057 0
-73 4051 4057 0
73 74 4057 0
73 -4051 4057 0
-4052 4057 0
-73 74 -4051 4052 -4058 0
-73 -74 -4051 -4052 -4058 0
-74 4052 4058 0
74 -4052 4058 0
73 4058 0
4051 4058 0
75 -76 4051 4052 -4059 0
-75 76 -4051 4052 -4059 0
-75 -76 4059 0
-75 4051 4059 0
75 76 4059 0
75 -4051 4059 0
-4052 4059 0
-75 76 -4051 4052 -4060 0
-75 -76 -4051 -4052 -4060 0
-76 4052 4060 0
76 -4052 4060 0
75 4060 0
4051 4060 0
-4557 4558 4561 4562 -4061 0
4557 -4558 -4561 4562 -4061 0
-4557 -4558 4061 0
-4557 -4561 4061 0
4557 4558 4061 0
4557 4561 4061 0
-4562 4061 0
4557 -4558 -4561 4562 -4062 0
-4557 -4558 -4561 -4562 -4062 0
-4557 4562 4062 0
4557 -4562 4062 0
4558 4062 0
4561 4062 0
75 -76 89 90 -4063 0
-75 76 89 -90 -4063 0
-75 -76 4063 0
-75 90 4063 0
75 76 4063 0
75 -90 4063 0
-89 4063 0
-75 76 89 -90 -4064 0
-75 -76 -89 -90 -4064 0
-76 89 4064 0
76 -89 4064 0
75 4064 0
90 4064 0
-4565 4566 4567 4568 -4065 0
4565 -4566 -4567 4568 -4065 0
-4565 -4566 4065 0
-4565 -4567 4065 0
4565 4566 4065 0
4565 4567 4065 0
-4568 4065 0
4565 -4566 -4567 4568 -4066 0
-4565 -4566 -4567 -4568 -4066 0
-4565 4568 4066 0
4565 -4568 4066 0
4566 4066 0
4567 4066 0
-4573 4574 4579 4580 -4067 0
4573 -4574 -4579 4580 -4067 0
-4573 -4574 4067 0
-4573 -4579 4067 0
4573 4574 4067 0
4573 4579 4067 0
-4580 4067 0
4573 -4574 -4579 4580 -4068 0
-4573 -4574 -4579 -4580 -4068 0
-4573 4580 4068 0
4573 -4580 4068 0
4574 4068 0
4579 4068 0
-4583 4584 4585 4586 -4069 0
4583 -4584 -4585 4586 -4069 0
-4583 -4584 4069 0
-4583 -4585 4069 0
4583 4584 4069 0
4583 4585 4069 0
-4586 4069 0
4583 -4584 -4585 4586 -4070 0
-4583 -4584 -4585 -4586 -4070 0
-4583 4586 4070 0
4583 -4586 4070 0
4584 4070 0
4585 4070 0
77 -78 3737 3738 -4071 0
-77 78 -3737 3738 -4071 0
-77 -78 4071 0
-77 3737 4071 0
77 78 4071 0
77 -3737 4071 0
-3738 4071 0
-77 78 -3737 3738 -4072 0
-77 -78 -3737 -3738 -4072 0
-78 3738 4072 0
78 -3738 4072 0
77 4072 0
3737 4072 0
65 -66 91 92 -4073 0
-65 66 91 -92 -4073 0
-65 -66 4073 0
-65 92 4073 0
65 66 4073 0
65 -92 4073 0
-91 4073 0
-65 66 91 -92 -4074 0
-65 -66 -91 -92 -4074 0
-66 91 4074 0
66 -91 4074 0
65 4074 0
92 4074 0
179 -180 3487 3488 -4075 0
-179 180 -3487 3488 -4075 0
-179 -180 4075 0
-179 3487 4075 0
179 180 4075 0
179 -3487 4075 0
-3488 4075 0
-179 180 -3487 3488 -4076 0
-179 -180 -3487 -3488 -4076 0
-180 3488 4076 0
180 -3488 4076 0
179 4076 0
3487 4076 0
177 -178 4157 4158 -4077 0
-177 178 -4157 4158 -4077 0
-177 -178 4077 0
-177 4157 4077 0
177 178 4077 0
177 -4157 4077 0
-4158 4077 0
-177 178 -4157 4158 -4078 0
-177 -178 -4157 -4158 -4078 0
-178 4158 4078 0
178 -4158 4078 0
177 4078 0
4157 4078 0
177 -178 179 180 -4079 0
-177 178 179 -180 -4079 0
-177 -178 4079 0
-177 180 4079 0
177 178 4079 0
177 -180 4079 0
-179 4079 0
-177 178 179 -180 -4080 0
-177 -178 -179 -180 -4080 0
-178 179 4080 0
178 -179 4080 0
177 4080 0
180 4080 0
175 -176 3487 3488 -4081 0
-175 176 -3487 3488 -4081 0
-175 -176 4081 0
-175 3487 4081 0
175 176 4081 0
175 -3487 4081 0
-3488 4081 0
-175 176 -3487 3488 -4082 0
-175 -176 -3487 -3488 -4082 0
-176 3488 4082 0
176 -3488 4082 0
175 4082 0
3487 4082 0
175 -176 4551 4552 -4083 0
-175 176 -4551 4552 -4083 0
-175 -176 4083 0
-175 4551 4083 0
175 176 4083 0
175 -4551 4083 0
-4552 4083 0
-175 176 -4551 4552 -4084 0
-175 -176 -4551 -4552 -4084 0
-176 4552 4084 0
176 -4552 4084 0
175 4084 0
4551 4084 0
65 -66 91 92 -4085 0
-65 66 91 -92 -4085 0
-65 -66 4085 0
-65 92 4085 0
65 66 4085 0
65 -92 4085 0
-91 4085 0
-65 66 91 -92 -4086 0
-65 -66 -91 -92 -4086 0
-66 91 4086 0
66 -91 4086 0
65 4086 0
92 4086 0
61 -62 4589 4590 -4087 0
-61 62 -4589 4590 -4087 0
-61 -62 4087 0
-61 4589 4087 0
61 62 4087 0
61 -4589 4087 0
-4590 4087 0
-61 62 -4589 4590 -4088 0
-61 -62 -4589 -4590 -4088 0
-62 4590 4088 0
62 -4590 4088 0
61 4088 0
4589 4088 0
49 -50 79 80 -4089 0
-49 50 79 -80 -4089 0
-49 -50 4089 0
-49 80 4089 0
49 50 4089 0
49 -80 4089 0
-79 4089 0
-49 50 79 -80 -4090 0
-49 -50 -79 -80 -4090 0
-50 79 4090 0
50 -79 4090 0
49 4090 0
80 4090 0
181 -182 189 190 -4091 0
-181 182 189 -190 -4091 0
-181 -182 4091 0
-181 190 4091 0
181 182 4091 0
181 -190 4091 0
-189 4091 0
-181 182 189 -190 -4092 0
-181 -182 -189 -190 -4092 0
-182 189 4092 0
182 -189 4092 0
181 4092 0
190 4092 0
129 -130 181 182 -4093 0
-129 130 181 -182 -4093 0
-129 -130 4093 0
-129 182 4093 0
129 130 4093 0
129 -182 4093 0
-181 4093 0
-129 130 181 -182 -4094 0
-129 -130 -181 -182 -4094 0
-130 181 4094 0
130 -181 4094 0
129 4094 0
182 4094 0
181 -182 189 190 -4095 0
-181 182 189 -190 -4095 0
-181 -182 4095 0
-181 190 4095 0
181 182 4095 0
181 -190 4095 0
-189 4095 0
-181 182 189 -190 -4096 0
-181 -182 -189 -190 -4096 0
-182 189 4096 0
182 -189 4096 0
181 4096 0
190 4096 0
181 -182 187 188 -4097 0
-181 182 187 -188 -4097 0
-181 -182 4097 0
-181 188 4097 0
181 182 4097 0
181 -188 4097 0
-187 4097 0
-181 182 187 -188 -4098 0
-181 -182 -187 -188 -4098 0
-182 187 4098 0
182 -187 4098 0
181 4098 0
188 4098 0
-3921 3922 4595 4596 -4099 0
3921 -3922 -4595 4596 -4099 0
-3921 -3922 4099 0
-3921 -4595 4099 0
3921 3922 4099 0
3921 4595 4099 0
-4596 4099 0
3921 -3922 -4595 4596 -4100 0
-3921 -3922 -4595 -4596 -4100 0
-3921 4596 4100 0
3921 -4596 4100 0
3922 4100 0
4595 4100 0
-4099 4100 4597 4598 -4101 0
4099 -4100 -4597 4598 -4101 0
-4099 -4100 4101 0
-4099 -4597 4101 0
4099 4100 4101 0
4099 4597 4101 0
-4598 4101 0
4099 -4100 -4597 4598 -4102 0
-4099 -4100 -4597 -4598 -4102 0
-4099 4598 4102 0
4099 -4598 4102 0
4100 4102 0
4597 4102 0
-4099 4100 4599 4600 -4103 0
4099 -4100 -4599 4600 -4103 0
-4099 -4100 4103 0
-4099 -4599 4103 0
4099 4100 4103 0
4099 4599 4103 0
-4600 4103 0
4099 -4100 -4599 4600 -4104 0
-4099 -4100 -4599 -4600 -4104 0
-4099 4600 4104 0
4099 -4600 4104 0
4100 4104 0
4599 4104 0
-4217 4218 4601 4602 -4105 0
4217 -4218 -4601 4602 -4105 0
-4217 -4218 4105 0
-4217 -4601 4105 0
4217 4218 4105 0
4217 4601 4105 0
-4602 4105 0
4217 -4218 -4601 4602 -4106 0
-4217 -4218 -4601 -4602 -4106 0
-4217 4602 4106 0
4217 -4602 4106 0
4218 4106 0
4601 4106 0
-4217 4218 4603 4604 -4107 0
4217 -4218 -4603 4604 -4107 0
-4217 -4218 4107 0
-4217 -4603 4107 0
4217 4218 4107 0
4217 4603 4107 0
-4604 4107 0
4217 -4218 -4603 4604 -4108 0
-4217 -4218 -4603 -4604 -4108 0
-4217 4604 4108 0
4217 -4604 4108 0
4218 4108 0
4603 4108 0
-4217 4218 4605 4606 -4109 0
4217 -4218 -4605 4606 -4109 0
-4217 -4218 4109 0
-4217 -4605 4109 0
4217 4218 4109 0
4217 4605 4109 0
-4606 4109 0
4217 -4218 -4605 4606 -4110 0
-4217 -4218 -4605 -4606 -4110 0
-4217 4606 4110 0
4217 -4606 4110 0
4218 4110 0
4605 4110 0
225 -226 4607 4608 -4111 0
-225 226 -4607 4608 -4111 0
-225 -226 4111 0
-225 4607 4111 0
225 226 4111 0
225 -4607 4111 0
-4608 4111 0
-225 226 -4607 4608 -4112 0
-225 -226 -4607 -4608 -4112 0
-226 4608 4112 0
226 -4608 4112 0
225 4112 0
4607 4112 0
223 -224 4609 4610 -4113 0
-223 224 -4609 4610 -4113 0
-223 -224 4113 0
-223 4609 4113 0
223 224 4113 0
223 -4609 4113 0
-4610 4113 0
-223 224 -4609 4610 -4114 0
-223 -224 -4609 -4610 -4114 0
-224 4610 4114 0
224 -4610 4114 0
223 4114 0
4609 4114 0
177 -178 187 188 -4115 0
-177 178 187 -188 -4115 0
-177 -178 4115 0
-177 188 4115 0
177 178 4115 0
177 -188 4115 0
-187 4115 0
-177 178 187 -188 -4116 0
-177 -178 -187 -188 -4116 0
-178 187 4116 0
178 -187 4116 0
177 4116 0
188 4116 0
77 -78 177 178 -4117 0
-77 78 177 -178 -4117 0
-77 -78 4117 0
-77 178 4117 0
77 78 4117 0
77 -178 4117 0
-177 4117 0
-77 78 177 -178 -4118 0
-77 -78 -177 -178 -4118 0
-78 177 4118 0
78 -177 4118 0
77 4118 0
178 4118 0
223 -224 4615 4616 -4119 0
-223 224 -4615 4616 -4119 0
-223 -224 4119 0
-223 4615 4119 0
223 224 4119 0
223 -4615 4119 0
-4616 4119 0
-223 224 -4615 4616 -4120 0
-223 -224 -4615 -4616 -4120 0
-224 4616 4120 0
224 -4616 4120 0
223 4120 0
4615 4120 0
67 -68 91 92 -4121 0
-67 68 91 -92 -4121 0
-67 -68 4121 0
-67 92 4121 0
67 68 4121 0
67 -92 4121 0
-91 4121 0
-67 68 91 -92 -4122 0
-67 -68 -91 -92 -4122 0
-68 91 4122 0
68 -91 4122 0
67 4122 0
92 4122 0
-4553 4554 4149 4150 -4123 0
4553 -4554 -4149 4150 -4123 0
-4553 -4554 4123 0
-4553 -4149 4123 0
4553 4554 4123 0
4553 4149 4123 0
-4150 4123 0
4553 -4554 -4149 4150 -4124 0
-4553 -4554 -4149 -4150 -4124 0
-4553 4150 4124 0
4553 -4150 4124 0
4554 4124 0
4149 4124 0
-4615 4616 4621 4622 -4125 0
4615 -4616 -4621 4622 -4125 0
-4615 -4616 4125 0
-4615 -4621 4125 0
4615 4616 4125 0
4615 4621 4125 0
-4622 4125 0
4615 -4616 -4621 4622 -4126 0
-4615 -4616 -4621 -4622 -4126 0
-4615 4622 4126 0
4615 -4622 4126 0
4616 4126 0
4621 4126 0
225 -226 4615 4616 -4127 0
-225 226 -4615 4616 -4127 0
-225 -226 4127 0
-225 4615 4127 0
225 226 4127 0
225 -4615 4127 0
-4616 4127 0
-225 226 -4615 4616 -4128 0
-225 -226 -4615 -4616 -4128 0
-226 4616 4128 0
226 -4616 4128 0
225 4128 0
4615 4128 0
-4627 4628 4629 4630 -4129 0
4627 -4628 -4629 4630 -4129 0
-4627 -4628 4129 0
-4627 -4629 4129 0
4627 4628 4129 0
4627 4629 4129 0
-4630 4129 0
4627 -4628 -4629 4630 -4130 0
-4627 -4628 -4629 -4630 -4130 0
-4627 4630 4130 0
4627 -4630 4130 0
4628 4130 0
4629 4130 0
-4633 4634 4637 4638 -4131 0
4633 -4634 -4637 4638 -4131 0
-4633 -4634 4131 0
-4633 -4637 4131 0
4633 4634 4131 0
4633 4637 4131 0
-4638 4131 0
4633 -4634 -4637 4638 -4132 0
-4633 -4634 -4637 -4638 -4132 0
-4633 4638 4132 0
4633 -4638 4132 0
4634 4132 0
4637 4132 0
-4627 4628 4639 4640 -4133 0
4627 -4628 -4639 4640 -4133 0
-4627 -4628 4133 0
-4627 -4639 4133 0
4627 4628 4133 0
4627 4639 4133 0
-4640 4133 0
4627 -4628 -4639 4640 -4134 0
-4627 -4628 -4639 -4640 -4134 0
-4627 4640 4134 0
4627 -4640 4134 0
4628 4134 0
4639 4134 0
-4645 4646 4647 4648 -4135 0
4645 -4646 -4647 4648 -4135 0
-4645 -4646 4135 0
-4645 -4647 4135 0
4645 4646 4135 0
4645 4647 4135 0
-4648 4135 0
4645 -4646 -4647 4648 -4136 0
-4645 -4646 -4647 -4648 -4136 0
-4645 4648 4136 0
4645 -4648 4136 0
4646 4136 0
4647 4136 0
-4653 4654 4659 4660 -4137 0
4653 -4654 -4659 4660 -4137 0
-4653 -4654 4137 0
-4653 -4659 4137 0
4653 4654 4137 0
4653 4659 4137 0
-4660 4137 0
4653 -4654 -4659 4660 -4138 0
-4653 -4654 -4659 -4660 -4138 0
-4653 4660 4138 0
4653 -4660 4138 0
4654 4138 0
4659 4138 0
-4665 4666 4671 4672 -4139 0
4665 -4666 -4671 4672 -4139 0
-4665 -4666 4139 0
-4665 -4671 4139 0
4665 4666 4139 0
4665 4671 4139 0
-4672 4139 0
4665 -4666 -4671 4672 -4140 0
-4665 -4666 -4671 -4672 -4140 0
-4665 4672 4140 0
4665 -4672 4140 0
4666 4140 0
4671 4140 0
-4677 4678 4683 4684 -4141 0
4677 -4678 -4683 4684 -4141 0
-4677 -4678 4141 0
-4677 -4683 4141 0
4677 4678 4141 0
4677 4683 4141 0
-4684 4141 0
4677 -4678 -4683 4684 -4142 0
-4677 -4678 -4683 -4684 -4142 0
-4677 4684 4142 0
4677 -4684 4142 0
4678 4142 0
4683 4142 0
-4685 4686 4691 4692 -4143 0
4685 -4686 -4691 4692 -4143 0
-4685 -4686 4143 0
-4685 -4691 4143 0
4685 4686 4143 0
4685 4691 4143 0
-4692 4143 0
4685 -4686 -4691 4692 -4144 0
-4685 -4686 -4691 -4692 -4144 0
-4685 4692 4144 0
4685 -4692 4144 0
4686 4144 0
4691 4144 0
-4693 4694 4695 4696 -4145 0
4693 -4694 -4695 4696 -4145 0
-4693 -4694 4145 0
-4693 -4695 4145 0
4693 4694 4145 0
4693 4695 4145 0
-4696 4145 0
4693 -4694 -4695 4696 -4146 0
-4693 -4694 -4695 -4696 -4146 0
-4693 4696 4146 0
4693 -4696 4146 0
4694 4146 0
4695 4146 0
211 -212 4149 4150 -4147 0
-211 212 -4149 4150 -4147 0
-211 -212 4147 0
-211 4149 4147 0
211 212 4147 0
211 -4149 4147 0
-4150 4147 0
-211 212 -4149 4150 -4148 0
-211 -212 -4149 -4150 -4148 0
-212 4150 4148 0
212 -4150 4148 0
211 4148 0
4149 4148 0
-4617 4618 4619 4620 -4149 0
4617 -4618 -4619 4620 -4149 0
-4617 -4618 4149 0
-4617 -4619 4149 0
4617 4618 4149 0
4617 4619 4149 0
-4620 4149 0
4617 -4618 -4619 4620 -4150 0
-4617 -4618 -4619 -4620 -4150 0
-4617 4620 4150 0
4617 -4620 4150 0
4618 4150 0
4619 4150 0
-4705 4706 4707 4708 -4151 0
4705 -4706 -4707 4708 -4151 0
-4705 -4706 4151 0
-4705 -4707 4151 0
4705 4706 4151 0
4705 4707 4151 0
-4708 4151 0
4705 -4706 -4707 4708 -4152 0
-4705 -4706 -4707 -4708 -4152 0
-4705 4708 4152 0
4705 -4708 4152 0
4706 4152 0
4707 4152 0
-4709 4710 4711 4712 -4153 0
4709 -4710 -4711 4712 -4153 0
-4709 -4710 4153 0
-4709 -4711 4153 0
4709 4710 4153 0
4709 4711 4153 0
-4712 4153 0
4709 -4710 -4711 4712 -4154 0
-4709 -4710 -4711 -4712 -4154 0
-4709 4712 4154 0
4709 -4712 4154 0
4710 4154 0
4711 4154 0
81 -82 215 216 -4155 0
-81 82 215 -216 -4155 0
-81 -82 4155 0
-81 216 4155 0
81 82 4155 0
81 -216 4155 0
-215 4155 0
-81 82 215 -216 -4156 0
-81 -82 -215 -216 -4156 0
-82 215 4156 0
82 -215 4156 0
81 4156 0
216 4156 0
33 -34 4587 4588 -4157 0
-33 34 -4587 4588 -4157 0
-33 -34 4157 0
-33 4587 4157 0
33 34 4157 0
33 -4587 4157 0
-4588 4157 0
-33 34 -4587 4588 -4158 0
-33 -34 -4587 -4588 -4158 0
-34 4588 4158 0
34 -4588 4158 0
33 4158 0
4587 4158 0
177 -178 179 180 -4159 0
-177 178 179 -180 -4159 0
-177 -178 4159 0
-177 180 4159 0
177 178 4159 0
177 -180 4159 0
-179 4159 0
-177 178 179 -180 -4160 0
-177 -178 -179 -180 -4160 0
-178 179 4160 0
178 -179 4160 0
177 4160 0
180 4160 0
-4713 4714 4715 4716 -4161 0
4713 -4714 -4715 4716 -4161 0
-4713 -4714 4161 0
-4713 -4715 4161 0
4713 4714 4161 0
4713 4715 4161 0
-4716 4161 0
4713 -4714 -4715 4716 -4162 0
-4713 -4714 -4715 -4716 -4162 0
-4713 4716 4162 0
4713 -4716 4162 0
4714 4162 0
4715 4162 0
-4717 4718 4719 4720 -4163 0
4717 -4718 -4719 4720 -4163 0
-4717 -4718 4163 0
-4717 -4719 4163 0
4717 4718 4163 0
4717 4719 4163 0
-4720 4163 0
4717 -4718 -4719 4720 -4164 0
-4717 -4718 -4719 -4720 -4164 0
-4717 4720 4164 0
4717 -4720 4164 0
4718 4164 0
4719 4164 0
-4721 4722 4723 4724 -4165 0
4721 -4722 -4723 4724 -4165 0
-4721 -4722 4165 0
-4721 -4723 4165 0
4721 4722 4165 0
4721 4723 4165 0
-4724 4165 0
4721 -4722 -4723 4724 -4166 0
-4721 -4722 -4723 -4724 -4166 0
-4721 4724 4166 0
4721 -4724 4166 0
4722 4166 0
4723 4166 0
-4725 4726 4727 4728 -4167 0
4725 -4726 -4727 4728 -4167 0
-4725 -4726 4167 0
-4725 -4727 4167 0
4725 4726 4167 0
4725 4727 4167 0
-4728 4167 0
4725 -4726 -4727 4728 -4168 0
-4725 -4726 -4727 -4728 -4168 0
-4725 4728 4168 0
4725 -4728 4168 0
4726 4168 0
4727 4168 0
-4729 4730 4733 4734 -4169 0
4729 -4730 -4733 4734 -4169 0
-4729 -4730 4169 0
-4729 -4733 4169 0
4729 4730 4169 0
4729 4733 4169 0
-4734 4169 0
4729 -4730 -4733 4734 -4170 0
-4729 -4730 -4733 -4734 -4170 0
-4729 4734 4170 0
4729 -4734 4170 0
4730 4170 0
4733 4170 0
-4735 4736 4737 4738 -4171 0
4735 -4736 -4737 4738 -4171 0
-4735 -4736 4171 0
-4735 -4737 4171 0
4735 4736 4171 0
4735 4737 4171 0
-4738 4171 0
4735 -4736 -4737 4738 -4172 0
-4735 -4736 -4737 -4738 -4172 0
-4735 4738 4172 0
4735 -4738 4172 0
4736 4172 0
4737 4172 0
-4731 4732 4743 4744 -4173 0
4731 -4732 -4743 4744 -4173 0
-4731 -4732 4173 0
-4731 -4743 4173 0
4731 4732 4173 0
4731 4743 4173 0
-4744 4173 0
4731 -4732 -4743 4744 -4174 0
-4731 -4732 -4743 -4744 -4174 0
-4731 4744 4174 0
4731 -4744 4174 0
4732 4174 0
4743 4174 0
-4731 4732 4745 4746 -4175 0
4731 -4732 -4745 4746 -4175 0
-4731 -4732 4175 0
-4731 -4745 4175 0
4731 4732 4175 0
4731 4745 4175 0
-4746 4175 0
4731 -4732 -4745 4746 -4176 0
-4731 -4732 -4745 -4746 -4176 0
-4731 4746 4176 0
4731 -4746 4176 0
4732 4176 0
4745 4176 0
-4751 4752 4757 4758 -4177 0
4751 -4752 -4757 4758 -4177 0
-4751 -4752 4177 0
-4751 -4757 4177 0
4751 4752 4177 0
4751 4757 4177 0
-4758 4177 0
4751 -4752 -4757 4758 -4178 0
-4751 -4752 -4757 -4758 -4178 0
-4751 4758 4178 0
4751 -4758 4178 0
4752 4178 0
4757 4178 0
-4763 4764 4769 4770 -4179 0
4763 -4764 -4769 4770 -4179 0
-4763 -4764 4179 0
-4763 -4769 4179 0
4763 4764 4179 0
4763 4769 4179 0
-4770 4179 0
4763 -4764 -4769 4770 -4180 0
-4763 -4764 -4769 -4770 -4180 0
-4763 4770 4180 0
4763 -4770 4180 0
4764 4180 0
4769 4180 0
-4773 4774 4779 4780 -4181 0
4773 -4774 -4779 4780 -4181 0
-4773 -4774 4181 0
-4773 -4779 4181 0
4773 4774 4181 0
4773 4779 4181 0
-4780 4181 0
4773 -4774 -4779 4780 -4182 0
-4773 -4774 -4779 -4780 -4182 0
-4773 4780 4182 0
4773 -4780 4182 0
4774 4182 0
4779 4182 0
-4783 4784 4789 4790 -4183 0
4783 -4784 -4789 4790 -4183 0
-4783 -4784 4183 0
-4783 -4789 4183 0
4783 4784 4183 0
4783 4789 4183 0
-4790 4183 0
4783 -4784 -4789 4790 -4184 0
-4783 -4784 -4789 -4790 -4184 0
-4783 4790 4184 0
4783 -4790 4184 0
4784 4184 0
4789 4184 0
231 -232 257 258 -4185 0
-231 232 257 -258 -4185 0
-231 -232 4185 0
-231 258 4185 0
231 232 4185 0
231 -258 4185 0
-257 4185 0
-231 232 257 -258 -4186 0
-231 -232 -257 -258 -4186 0
-232 257 4186 0
232 -257 4186 0
231 4186 0
258 4186 0
259 -260 3531 3532 -4187 0
-259 260 -3531 3532 -4187 0
-259 -260 4187 0
-259 3531 4187 0
259 260 4187 0
259 -3531 4187 0
-3532 4187 0
-259 260 -3531 3532 -4188 0
-259 -260 -3531 -3532 -4188 0
-260 3532 4188 0
260 -3532 4188 0
259 4188 0
3531 4188 0
37 -38 257 258 -4189 0
-37 38 257 -258 -4189 0
-37 -38 4189 0
-37 258 4189 0
37 38 4189 0
37 -258 4189 0
-257 4189 0
-37 38 257 -258 -4190 0
-37 -38 -257 -258 -4190 0
-38 257 4190 0
38 -257 4190 0
37 4190 0
258 4190 0
259 -260 3531 3532 -4191 0
-259 260 -3531 3532 -4191 0
-259 -260 4191 0
-259 3531 4191 0
259 260 4191 0
259 -3531 4191 0
-3532 4191 0
-259 260 -3531 3532 -4192 0
-259 -260 -3531 -3532 -4192 0
-260 3532 4192 0
260 -3532 4192 0
259 4192 0
3531 4192 0
181 -182 189 190 -4193 0
-181 182 189 -190 -4193 0
-181 -182 4193 0
-181 190 4193 0
181 182 4193 0
181 -190 4193 0
-189 4193 0
-181 182 189 -190 -4194 0
-181 -182 -189 -190 -4194 0
-182 189 4194 0
182 -189 4194 0
181 4194 0
190 4194 0
181 -182 187 188 -4195 0
-181 182 187 -188 -4195 0
-181 -182 4195 0
-181 188 4195 0
181 182 4195 0
181 -188 4195 0
-187 4195 0
-181 182 187 -188 -4196 0
-181 -182 -187 -188 -4196 0
-182 187 4196 0
182 -187 4196 0
181 4196 0
188 4196 0
-4791 4792 4797 4798 -4197 0
4791 -4792 -4797 4798 -4197 0
-4791 -4792 4197 0
-4791 -4797 4197 0
4791 4792 4197 0
4791 4797 4197 0
-4798 4197 0
4791 -4792 -4797 4798 -4198 0
-4791 -4792 -4797 -4798 -4198 0
-4791 4798 4198 0
4791 -4798 4198 0
4792 4198 0
4797 4198 0
-4197 4198 4799 4800 -4199 0
4197 -4198 -4799 4800 -4199 0
-4197 -4198 4199 0
-4197 -4799 4199 0
4197 4198 4199 0
4197 4799 4199 0
-4800 4199 0
4197 -4198 -4799 4800 -4200 0
-4197 -4198 -4799 -4800 -4200 0
-4197 4800 4200 0
4197 -4800 4200 0
4198 4200 0
4799 4200 0
-4197 4198 4801 4802 -4201 0
4197 -4198 -4801 4802 -4201 0
-4197 -4198 4201 0
-4197 -4801 4201 0
4197 4198 4201 0
4197 4801 4201 0
-4802 4201 0
4197 -4198 -4801 4802 -4202 0
-4197 -4198 -4801 -4802 -4202 0
-4197 4802 4202 0
4197 -4802 4202 0
4198 4202 0
4801 4202 0
201 -202 3897 3898 -4203 0
-201 202 -3897 3898 -4203 0
-201 -202 4203 0
-201 3897 4203 0
201 202 4203 0
201 -3897 4203 0
-3898 4203 0
-201 202 -3897 3898 -4204 0
-201 -202 -3897 -3898 -4204 0
-202 3898 4204 0
202 -3898 4204 0
201 4204 0
3897 4204 0
203 -204 3263 3264 -4205 0
-203 204 -3263 3264 -4205 0
-203 -204 4205 0
-203 3263 4205 0
203 204 4205 0
203 -3263 4205 0
-3264 4205 0
-203 204 -3263 3264 -4206 0
-203 -204 -3263 -3264 -4206 0
-204 3264 4206 0
204 -3264 4206 0
203 4206 0
3263 4206 0
151 -152 153 154 -4207 0
-151 152 153 -154 -4207 0
-151 -152 4207 0
-151 154 4207 0
151 152 4207 0
151 -154 4207 0
-153 4207 0
-151 152 153 -154 -4208 0
-151 -152 -153 -154 -4208 0
-152 153 4208 0
152 -153 4208 0
151 4208 0
154 4208 0
197 -198 3973 3974 -4209 0
-197 198 -3973 3974 -4209 0
-197 -198 4209 0
-197 3973 4209 0
197 198 4209 0
197 -3973 4209 0
-3974 4209 0
-197 198 -3973 3974 -4210 0
-197 -198 -3973 -3974 -4210 0
-198 3974 4210 0
198 -3974 4210 0
197 4210 0
3973 4210 0
37 -38 231 232 -4211 0
-37 38 231 -232 -4211 0
-37 -38 4211 0
-37 232 4211 0
37 38 4211 0
37 -232 4211 0
-231 4211 0
-37 38 231 -232 -4212 0
-37 -38 -231 -232 -4212 0
-38 231 4212 0
38 -231 4212 0
37 4212 0
232 4212 0
-3535 3536 4803 4804 -4213 0
3535 -3536 -4803 4804 -4213 0
-3535 -3536 4213 0
-3535 -4803 4213 0
3535 3536 4213 0
3535 4803 4213 0
-4804 4213 0
3535 -3536 -4803 4804 -4214 0
-3535 -3536 -4803 -4804 -4214 0
-3535 4804 4214 0
3535 -4804 4214 0
3536 4214 0
4803 4214 0
-4805 4806 4807 4808 -4215 0
4805 -4806 -4807 4808 -4215 0
-4805 -4806 4215 0
-4805 -4807 4215 0
4805 4806 4215 0
4805 4807 4215 0
-4808 4215 0
4805 -4806 -4807 4808 -4216 0
-4805 -4806 -4807 -4808 -4216 0
-4805 4808 4216 0
4805 -4808 4216 0
4806 4216 0
4807 4216 0
139 -140 3945 3946 -4217 0
-139 140 -3945 3946 -4217 0
-139 -140 4217 0
-139 3945 4217 0
139 140 4217 0
139 -3945 4217 0
-3946 4217 0
-139 140 -3945 3946 -4218 0
-139 -140 -3945 -3946 -4218 0
-140 3946 4218 0
140 -3946 4218 0
139 4218 0
3945 4218 0
235 -236 237 238 -4219 0
-235 236 237 -238 -4219 0
-235 -236 4219 0
-235 238 4219 0
235 236 4219 0
235 -238 4219 0
-237 4219 0
-235 236 237 -238 -4220 0
-235 -236 -237 -238 -4220 0
-236 237 4220 0
236 -237 4220 0
235 4220 0
238 4220 0
131 -132 3535 3536 -4221 0
-131 132 -3535 3536 -4221 0
-131 -132 4221 0
-131 3535 4221 0
131 132 4221 0
131 -3535 4221 0
-3536 4221 0
-131 132 -3535 3536 -4222 0
-131 -132 -3535 -3536 -4222 0
-132 3536 4222 0
132 -3536 4222 0
131 4222 0
3535 4222 0
131 -132 159 160 -4223 0
-131 132 159 -160 -4223 0
-131 -132 4223 0
-131 160 4223 0
131 132 4223 0
131 -160 4223 0
-159 4223 0
-131 132 159 -160 -4224 0
-131 -132 -159 -160 -4224 0
-132 159 4224 0
132 -159 4224 0
131 4224 0
160 4224 0
131 -132 141 142 -4225 0
-131 132 141 -142 -4225 0
-131 -132 4225 0
-131 142 4225 0
131 132 4225 0
131 -142 4225 0
-141 4225 0
-131 132 141 -142 -4226 0
-131 -132 -141 -142 -4226 0
-132 141 4226 0
132 -141 4226 0
131 4226 0
142 4226 0
131 -132 139 140 -4227 0
-131 132 139 -140 -4227 0
-131 -132 4227 0
-131 140 4227 0
131 132 4227 0
131 -140 4227 0
-139 4227 0
-131 132 139 -140 -4228 0
-131 -132 -139 -140 -4228 0
-132 139 4228 0
132 -139 4228 0
131 4228 0
140 4228 0
-4813 4814 4819 4820 -4229 0
4813 -4814 -4819 4820 -4229 0
-4813 -4814 4229 0
-4813 -4819 4229 0
4813 4814 4229 0
4813 4819 4229 0
-4820 4229 0
4813 -4814 -4819 4820 -4230 0
-4813 -4814 -4819 -4820 -4230 0
-4813 4820 4230 0
4813 -4820 4230 0
4814 4230 0
4819 4230 0
-4825 4826 4831 4832 -4231 0
4825 -4826 -4831 4832 -4231 0
-4825 -4826 4231 0
-4825 -4831 4231 0
4825 4826 4231 0
4825 4831 4231 0
-4832 4231 0
4825 -4826 -4831 4832 -4232 0
-4825 -4826 -4831 -4832 -4232 0
-4825 4832 4232 0
4825 -4832 4232 0
4826 4232 0
4831 4232 0
-4837 4838 4843 4844 -4233 0
4837 -4838 -4843 4844 -4233 0
-4837 -4838 4233 0
-4837 -4843 4233 0
4837 4838 4233 0
4837 4843 4233 0
-4844 4233 0
4837 -4838 -4843 4844 -4234 0
-4837 -4838 -4843 -4844 -4234 0
-4837 4844 4234 0
4837 -4844 4234 0
4838 4234 0
4843 4234 0
-4849 4850 4855 4856 -4235 0
4849 -4850 -4855 4856 -4235 0
-4849 -4850 4235 0
-4849 -4855 4235 0
4849 4850 4235 0
4849 4855 4235 0
-4856 4235 0
4849 -4850 -4855 4856 -4236 0
-4849 -4850 -4855 -4856 -4236 0
-4849 4856 4236 0
4849 -4856 4236 0
4850 4236 0
4855 4236 0
141 -142 267 268 -4237 0
-141 142 267 -268 -4237 0
-141 -142 4237 0
-141 268 4237 0
141 142 4237 0
141 -268 4237 0
-267 4237 0
-141 142 267 -268 -4238 0
-141 -142 -267 -268 -4238 0
-142 267 4238 0
142 -267 4238 0
141 4238 0
268 4238 0
141 -142 3895 3896 -4239 0
-141 142 -3895 3896 -4239 0
-141 -142 4239 0
-141 3895 4239 0
141 142 4239 0
141 -3895 4239 0
-3896 4239 0
-141 142 -3895 3896 -4240 0
-141 -142 -3895 -3896 -4240 0
-142 3896 4240 0
142 -3896 4240 0
141 4240 0
3895 4240 0
139 -140 141 142 -4241 0
-139 140 141 -142 -4241 0
-139 -140 4241 0
-139 142 4241 0
139 140 4241 0
139 -142 4241 0
-141 4241 0
-139 140 141 -142 -4242 0
-139 -140 -141 -142 -4242 0
-140 141 4242 0
140 -141 4242 0
139 4242 0
142 4242 0
267 -268 4857 4858 -4243 0
-267 268 -4857 4858 -4243 0
-267 -268 4243 0
-267 4857 4243 0
267 268 4243 0
267 -4857 4243 0
-4858 4243 0
-267 268 -4857 4858 -4244 0
-267 -268 -4857 -4858 -4244 0
-268 4858 4244 0
268 -4858 4244 0
267 4244 0
4857 4244 0
-3895 3896 4859 4860 -4245 0
3895 -3896 -4859 4860 -4245 0
-3895 -3896 4245 0
-3895 -4859 4245 0
3895 3896 4245 0
3895 4859 4245 0
-4860 4245 0
3895 -3896 -4859 4860 -4246 0
-3895 -3896 -4859 -4860 -4246 0
-3895 4860 4246 0
3895 -4860 4246 0
3896 4246 0
4859 4246 0
35 -36 239 240 -4247 0
-35 36 239 -240 -4247 0
-35 -36 4247 0
-35 240 4247 0
35 36 4247 0
35 -240 4247 0
-239 4247 0
-35 36 239 -240 -4248 0
-35 -36 -239 -240 -4248 0
-36 239 4248 0
36 -239 4248 0
35 4248 0
240 4248 0
35 -36 229 230 -4249 0
-35 36 229 -230 -4249 0
-35 -36 4249 0
-35 230 4249 0
35 36 4249 0
35 -230 4249 0
-229 4249 0
-35 36 229 -230 -4250 0
-35 -36 -229 -230 -4250 0
-36 229 4250 0
36 -229 4250 0
35 4250 0
230 4250 0
-4861 4862 4863 4864 -4251 0
4861 -4862 -4863 4864 -4251 0
-4861 -4862 4251 0
-4861 -4863 4251 0
4861 4862 4251 0
4861 4863 4251 0
-4864 4251 0
4861 -4862 -4863 4864 -4252 0
-4861 -4862 -4863 -4864 -4252 0
-4861 4864 4252 0
4861 -4864 4252 0
4862 4252 0
4863 4252 0
-4865 4866 4867 4868 -4253 0
4865 -4866 -4867 4868 -4253 0
-4865 -4866 4253 0
-4865 -4867 4253 0
4865 4866 4253 0
4865 4867 4253 0
-4868 4253 0
4865 -4866 -4867 4868 -4254 0
-4865 -4866 -4867 -4868 -4254 0
-4865 4868 4254 0
4865 -4868 4254 0
4866 4254 0
4867 4254 0
47 -48 49 50 -4255 0
-47 48 49 -50 -4255 0
-47 -48 4255 0
-47 50 4255 0
47 48 4255 0
47 -50 4255 0
-49 4255 0
-47 48 49 -50 -4256 0
-47 -48 -49 -50 -4256 0
-48 49 4256 0
48 -49 4256 0
47 4256 0
50 4256 0
65 -66 67 68 -4257 0
-65 66 67 -68 -4257 0
-65 -66 4257 0
-65 68 4257 0
65 66 4257 0
65 -68 4257 0
-67 4257 0
-65 66 67 -68 -4258 0
-65 -66 -67 -68 -4258 0
-66 67 4258 0
66 -67 4258 0
65 4258 0
68 4258 0
89 -90 197 198 -4259 0
-89 90 197 -198 -4259 0
-89 -90 4259 0
-89 198 4259 0
89 90 4259 0
89 -198 4259 0
-197 4259 0
-89 90 197 -198 -4260 0
-89 -90 -197 -198 -4260 0
-90 197 4260 0
90 -197 4260 0
89 4260 0
198 4260 0
39 -40 41 42 -4261 0
-39 40 41 -42 -4261 0
-39 -40 4261 0
-39 42 4261 0
39 40 4261 0
39 -42 4261 0
-41 4261 0
-39 40 41 -42 -4262 0
-39 -40 -41 -42 -4262 0
-40 41 4262 0
40 -41 4262 0
39 4262 0
42 4262 0
89 -90 197 198 -4263 0
-89 90 197 -198 -4263 0
-89 -90 4263 0
-89 198 4263 0
89 90 4263 0
89 -198 4263 0
-197 4263 0
-89 90 197 -198 -4264 0
-89 -90 -197 -198 -4264 0
-90 197 4264 0
90 -197 4264 0
89 4264 0
198 4264 0
67 -68 89 90 -4265 0
-67 68 89 -90 -4265 0
-67 -68 4265 0
-67 90 4265 0
67 68 4265 0
67 -90 4265 0
-89 4265 0
-67 68 89 -90 -4266 0
-67 -68 -89 -90 -4266 0
-68 89 4266 0
68 -89 4266 0
67 4266 0
90 4266 0
41 -42 89 90 -4267 0
-41 42 89 -90 -4267 0
-41 -42 4267 0
-41 90 4267 0
41 42 4267 0
41 -90 4267 0
-89 4267 0
-41 42 89 -90 -4268 0
-41 -42 -89 -90 -4268 0
-42 89 4268 0
42 -89 4268 0
41 4268 0
90 4268 0
109 -110 111 112 -4269 0
-109 110 111 -112 -4269 0
-109 -110 4269 0
-109 112 4269 0
109 110 4269 0
109 -112 4269 0
-111 4269 0
-109 110 111 -112 -4270 0
-109 -110 -111 -112 -4270 0
-110 111 4270 0
110 -111 4270 0
109 4270 0
112 4270 0
113 -114 3859 3860 -4271 0
-113 114 -3859 3860 -4271 0
-113 -114 4271 0
-113 3859 4271 0
113 114 4271 0
113 -3859 4271 0
-3860 4271 0
-113 114 -3859 3860 -4272 0
-113 -114 -3859 -3860 -4272 0
-114 3860 4272 0
114 -3860 4272 0
113 4272 0
3859 4272 0
153 -154 4869 4870 -4273 0
-153 154 -4869 4870 -4273 0
-153 -154 4273 0
-153 4869 4273 0
153 154 4273 0
153 -4869 4273 0
-4870 4273 0
-153 154 -4869 4870 -4274 0
-153 -154 -4869 -4870 -4274 0
-154 4870 4274 0
154 -4870 4274 0
153 4274 0
4869 4274 0
181 -182 189 190 -4275 0
-181 182 189 -190 -4275 0
-181 -182 4275 0
-181 190 4275 0
181 182 4275 0
181 -190 4275 0
-189 4275 0
-181 182 189 -190 -4276 0
-181 -182 -189 -190 -4276 0
-182 189 4276 0
182 -189 4276 0
181 4276 0
190 4276 0
-4273 4274 4275 4276 -4277 0
4273 -4274 -4275 4276 -4277 0
-4273 -4274 4277 0
-4273 -4275 4277 0
4273 4274 4277 0
4273 4275 4277 0
-4276 4277 0
4273 -4274 -4275 4276 -4278 0
-4273 -4274 -4275 -4276 -4278 0
-4273 4276 4278 0
4273 -4276 4278 0
4274 4278 0
4275 4278 0
153 -154 4871 4872 -4279 0
-153 154 -4871 4872 -4279 0
-153 -154 4279 0
-153 4871 4279 0
153 154 4279 0
153 -4871 4279 0
-4872 4279 0
-153 154 -4871 4872 -4280 0
-153 -154 -4871 -4872 -4280 0
-154 4872 4280 0
154 -4872 4280 0
153 4280 0
4871 4280 0
181 -182 187 188 -4281 0
-181 182 187 -188 -4281 0
-181 -182 4281 0
-181 188 4281 0
181 182 4281 0
181 -188 4281 0
-187 4281 0
-181 182 187 -188 -4282 0
-181 -182 -187 -188 -4282 0
-182 187 4282 0
182 -187 4282 0
181 4282 0
188 4282 0
-4279 4280 4281 4282 -4283 0
4279 -4280 -4281 4282 -4283 0
-4279 -4280 4283 0
-4279 -4281 4283 0
4279 4280 4283 0
4279 4281 4283 0
-4282 4283 0
4279 -4280 -4281 4282 -4284 0
-4279 -4280 -4281 -4282 -4284 0
-4279 4282 4284 0
4279 -4282 4284 0
4280 4284 0
4281 4284 0
-5671 5672 5681 5682 -4285 0
5671 -5672 -5681 5682 -4285 0
-5671 -5672 4285 0
-5671 -5681 4285 0
5671 5672 4285 0
5671 5681 4285 0
-5682 4285 0
5671 -5672 -5681 5682 -4286 0
-5671 -5672 -5681 -5682 -4286 0
-5671 5682 4286 0
5671 -5682 4286 0
5672 4286 0
5681 4286 0
-5691 5692 5701 5702 -4287 0
5691 -5692 -5701 5702 -4287 0
-5691 -5692 4287 0
-5691 -5701 4287 0
5691 5692 4287 0
5691 5701 4287 0
-5702 4287 0
5691 -5692 -5701 5702 -4288 0
-5691 -5692 -5701 -5702 -4288 0
-5691 5702 4288 0
5691 -5702 4288 0
5692 4288 0
5701 4288 0
-4285 4286 4287 4288 -4289 0
4285 -4286 -4287 4288 -4289 0
-4285 -4286 4289 0
-4285 -4287 4289 0
4285 4286 4289 0
4285 4287 4289 0
-4288 4289 0
4285 -4286 -4287 4288 -4290 0
-4285 -4286 -4287 -4288 -4290 0
-4285 4288 4290 0
4285 -4288 4290 0
4286 4290 0
4287 4290 0
-5725 5726 5729 5730 -4291 0
5725 -5726 -5729 5730 -4291 0
-5725 -5726 4291 0
-5725 -5729 4291 0
5725 5726 4291 0
5725 5729 4291 0
-5730 4291 0
5725 -5726 -5729 5730 -4292 0
-5725 -5726 -5729 -5730 -4292 0
-5725 5730 4292 0
5725 -5730 4292 0
5726 4292 0
5729 4292 0
-5711 5712 5721 5722 -4293 0
5711 -5712 -5721 5722 -4293 0
-5711 -5712 4293 0
-5711 -5721 4293 0
5711 5712 4293 0
5711 5721 4293 0
-5722 4293 0
5711 -5712 -5721 5722 -4294 0
-5711 -5712 -5721 -5722 -4294 0
-5711 5722 4294 0
5711 -5722 4294 0
5712 4294 0
5721 4294 0
-4291 4292 4293 4294 -4295 0
4291 -4292 -4293 4294 -4295 0
-4291 -4292 4295 0
-4291 -4293 4295 0
4291 4292 4295 0
4291 4293 4295 0
-4294 4295 0
4291 -4292 -4293 4294 -4296 0
-4291 -4292 -4293 -4294 -4296 0
-4291 4294 4296 0
4291 -4294 4296 0
4292 4296 0
4293 4296 0
-5739 5740 5747 5748 -4297 0
5739 -5740 -5747 5748 -4297 0
-5739 -5740 4297 0
-5739 -5747 4297 0
5739 5740 4297 0
5739 5747 4297 0
-5748 4297 0
5739 -5740 -5747 5748 -4298 0
-5739 -5740 -5747 -5748 -4298 0
-5739 5748 4298 0
5739 -5748 4298 0
5740 4298 0
5747 4298 0
-5755 5756 5763 5764 -4299 0
5755 -5756 -5763 5764 -4299 0
-5755 -5756 4299 0
-5755 -5763 4299 0
5755 5756 4299 0
5755 5763 4299 0
-5764 4299 0
5755 -5756 -5763 5764 -4300 0
-5755 -5756 -5763 -5764 -4300 0
-5755 5764 4300 0
5755 -5764 4300 0
5756 4300 0
5763 4300 0
-4297 4298 4299 4300 -4301 0
4297 -4298 -4299 4300 -4301 0
-4297 -4298 4301 0
-4297 -4299 4301 0
4297 4298 4301 0
4297 4299 4301 0
-4300 4301 0
4297 -4298 -4299 4300 -4302 0
-4297 -4298 -4299 -4300 -4302 0
-4297 4300 4302 0
4297 -4300 4302 0
4298 4302 0
4299 4302 0
-5783 5784 5785 5786 -4303 0
5783 -5784 -5785 5786 -4303 0
-5783 -5784 4303 0
-5783 -5785 4303 0
5783 5784 4303 0
5783 5785 4303 0
-5786 4303 0
5783 -5784 -5785 5786 -4304 0
-5783 -5784 -5785 -5786 -4304 0
-5783 5786 4304 0
5783 -5786 4304 0
5784 4304 0
5785 4304 0
-5771 5772 5779 5780 -4305 0
5771 -5772 -5779 5780 -4305 0
-5771 -5772 4305 0
-5771 -5779 4305 0
5771 5772 4305 0
5771 5779 4305 0
-5780 4305 0
5771 -5772 -5779 5780 -4306 0
-5771 -5772 -5779 -5780 -4306 0
-5771 5780 4306 0
5771 -5780 4306 0
5772 4306 0
5779 4306 0
-4303 4304 4305 4306 -4307 0
4303 -4304 -4305 4306 -4307 0
-4303 -4304 4307 0
-4303 -4305 4307 0
4303 4304 4307 0
4303 4305 4307 0
-4306 4307 0
4303 -4304 -4305 4306 -4308 0
-4303 -4304 -4305 -4306 -4308 0
-4303 4306 4308 0
4303 -4306 4308 0
4304 4308 0
4305 4308 0
-5793 5794 5801 5802 -4309 0
5793 -5794 -5801 5802 -4309 0
-5793 -5794 4309 0
-5793 -5801 4309 0
5793 5794 4309 0
5793 5801 4309 0
-5802 4309 0
5793 -5794 -5801 5802 -4310 0
-5793 -5794 -5801 -5802 -4310 0
-5793 5802 4310 0
5793 -5802 4310 0
5794 4310 0
5801 4310 0
-5809 5810 5817 5818 -4311 0
5809 -5810 -5817 5818 -4311 0
-5809 -5810 4311 0
-5809 -5817 4311 0
5809 5810 4311 0
5809 5817 4311 0
-5818 4311 0
5809 -5810 -5817 5818 -4312 0
-5809 -5810 -5817 -5818 -4312 0
-5809 5818 4312 0
5809 -5818 4312 0
5810 4312 0
5817 4312 0
-4309 4310 4311 4312 -4313 0
4309 -4310 -4311 4312 -4313 0
-4309 -4310 4313 0
-4309 -4311 4313 0
4309 4310 4313 0
4309 4311 4313 0
-4312 4313 0
4309 -4310 -4311 4312 -4314 0
-4309 -4310 -4311 -4312 -4314 0
-4309 4312 4314 0
4309 -4312 4314 0
4310 4314 0
4311 4314 0
-5837 5838 5839 5840 -4315 0
5837 -5838 -5839 5840 -4315 0
-5837 -5838 4315 0
-5837 -5839 4315 0
5837 5838 4315 0
5837 5839 4315 0
-5840 4315 0
5837 -5838 -5839 5840 -4316 0
-5837 -5838 -5839 -5840 -4316 0
-5837 5840 4316 0
5837 -5840 4316 0
5838 4316 0
5839 4316 0
-5825 5826 5833 5834 -4317 0
5825 -5826 -5833 5834 -4317 0
-5825 -5826 4317 0
-5825 -5833 4317 0
5825 5826 4317 0
5825 5833 4317 0
-5834 4317 0
5825 -5826 -5833 5834 -4318 0
-5825 -5826 -5833 -5834 -4318 0
-5825 5834 4318 0
5825 -5834 4318 0
5826 4318 0
5833 4318 0
-4315 4316 4317 4318 -4319 0
4315 -4316 -4317 4318 -4319 0
-4315 -4316 4319 0
-4315 -4317 4319 0
4315 4316 4319 0
4315 4317 4319 0
-4318 4319 0
4315 -4316 -4317 4318 -4320 0
-4315 -4316 -4317 -4318 -4320 0
-4315 4318 4320 0
4315 -4318 4320 0
4316 4320 0
4317 4320 0
-5847 5848 5855 5856 -4321 0
5847 -5848 -5855 5856 -4321 0
-5847 -5848 4321 0
-5847 -5855 4321 0
5847 5848 4321 0
5847 5855 4321 0
-5856 4321 0
5847 -5848 -5855 5856 -4322 0
-5847 -5848 -5855 -5856 -4322 0
-5847 5856 4322 0
5847 -5856 4322 0
5848 4322 0
5855 4322 0
-5863 5864 5871 5872 -4323 0
5863 -5864 -5871 5872 -4323 0
-5863 -5864 4323 0
-5863 -5871 4323 0
5863 5864 4323 0
5863 5871 4323 0
-5872 4323 0
5863 -5864 -5871 5872 -4324 0
-5863 -5864 -5871 -5872 -4324 0
-5863 5872 4324 0
5863 -5872 4324 0
5864 4324 0
5871 4324 0
-4321 4322 4323 4324 -4325 0
4321 -4322 -4323 4324 -4325 0
-4321 -4322 4325 0
-4321 -4323 4325 0
4321 4322 4325 0
4321 4323 4325 0
-4324 4325 0
4321 -4322 -4323 4324 -4326 0
-4321 -4322 -4323 -4324 -4326 0
-4321 4324 4326 0
4321 -4324 4326 0
4322 4326 0
4323 4326 0
-5891 5892 5893 5894 -4327 0
5891 -5892 -5893 5894 -4327 0
-5891 -5892 4327 0
-5891 -5893 4327 0
5891 5892 4327 0
5891 5893 4327 0
-5894 4327 0
5891 -5892 -5893 5894 -4328 0
-5891 -5892 -5893 -5894 -4328 0
-5891 5894 4328 0
5891 -5894 4328 0
5892 4328 0
5893 4328 0
-5879 5880 5887 5888 -4329 0
5879 -5880 -5887 5888 -4329 0
-5879 -5880 4329 0
-5879 -5887 4329 0
5879 5880 4329 0
5879 5887 4329 0
-5888 4329 0
5879 -5880 -5887 5888 -4330 0
-5879 -5880 -5887 -5888 -4330 0
-5879 5888 4330 0
5879 -5888 4330 0
5880 4330 0
5887 4330 0
-4327 4328 4329 4330 -4331 0
4327 -4328 -4329 4330 -4331 0
-4327 -4328 4331 0
-4327 -4329 4331 0
4327 4328 4331 0
4327 4329 4331 0
-4330 4331 0
4327 -4328 -4329 4330 -4332 0
-4327 -4328 -4329 -4330 -4332 0
-4327 4330 4332 0
4327 -4330 4332 0
4328 4332 0
4329 4332 0
1 -2 143 144 -4333 0
-1 2 143 -144 -4333 0
-1 -2 4333 0
-1 144 4333 0
1 2 4333 0
1 -144 4333 0
-143 4333 0
-1 2 143 -144 -4334 0
-1 -2 -143 -144 -4334 0
-2 143 4334 0
2 -143 4334 0
1 4334 0
144 4334 0
-5553 5554 5559 5560 -4335 0
5553 -5554 -5559 5560 -4335 0
-5553 -5554 4335 0
-5553 -5559 4335 0
5553 5554 4335 0
5553 5559 4335 0
-5560 4335 0
5553 -5554 -5559 5560 -4336 0
-5553 -5554 -5559 -5560 -4336 0
-5553 5560 4336 0
5553 -5560 4336 0
5554 4336 0
5559 4336 0
-5567 5568 5573 5574 -4337 0
5567 -5568 -5573 5574 -4337 0
-5567 -5568 4337 0
-5567 -5573 4337 0
5567 5568 4337 0
5567 5573 4337 0
-5574 4337 0
5567 -5568 -5573 5574 -4338 0
-5567 -5568 -5573 -5574 -4338 0
-5567 5574 4338 0
5567 -5574 4338 0
5568 4338 0
5573 4338 0
-4335 4336 4337 4338 -4339 0
4335 -4336 -4337 4338 -4339 0
-4335 -4336 4339 0
-4335 -4337 4339 0
4335 4336 4339 0
4335 4337 4339 0
-4338 4339 0
4335 -4336 -4337 4338 -4340 0
-4335 -4336 -4337 -4338 -4340 0
-4335 4338 4340 0
4335 -4338 4340 0
4336 4340 0
4337 4340 0
-5581 5582 5587 5588 -4341 0
5581 -5582 -5587 5588 -4341 0
-5581 -5582 4341 0
-5581 -5587 4341 0
5581 5582 4341 0
5581 5587 4341 0
-5588 4341 0
5581 -5582 -5587 5588 -4342 0
-5581 -5582 -5587 -5588 -4342 0
-5581 5588 4342 0
5581 -5588 4342 0
5582 4342 0
5587 4342 0
-5595 5596 5601 5602 -4343 0
5595 -5596 -5601 5602 -4343 0
-5595 -5596 4343 0
-5595 -5601 4343 0
5595 5596 4343 0
5595 5601 4343 0
-5602 4343 0
5595 -5596 -5601 5602 -4344 0
-5595 -5596 -5601 -5602 -4344 0
-5595 5602 4344 0
5595 -5602 4344 0
5596 4344 0
5601 4344 0
-4341 4342 4343 4344 -4345 0
4341 -4342 -4343 4344 -4345 0
-4341 -4342 4345 0
-4341 -4343 4345 0
4341 4342 4345 0
4341 4343 4345 0
-4344 4345 0
4341 -4342 -4343 4344 -4346 0
-4341 -4342 -4343 -4344 -4346 0
-4341 4344 4346 0
4341 -4344 4346 0
4342 4346 0
4343 4346 0
139 -140 5625 5626 -4347 0
-139 140 -5625 5626 -4347 0
-139 -140 4347 0
-139 5625 4347 0
139 140 4347 0
139 -5625 4347 0
-5626 4347 0
-139 140 -5625 5626 -4348 0
-139 -140 -5625 -5626 -4348 0
-140 5626 4348 0
140 -5626 4348 0
139 4348 0
5625 4348 0
-4559 4560 5627 5628 -4349 0
4559 -4560 -5627 5628 -4349 0
-4559 -4560 4349 0
-4559 -5627 4349 0
4559 4560 4349 0
4559 5627 4349 0
-5628 4349 0
4559 -4560 -5627 5628 -4350 0
-4559 -4560 -5627 -5628 -4350 0
-4559 5628 4350 0
4559 -5628 4350 0
4560 4350 0
5627 4350 0
-4347 4348 4349 4350 -4351 0
4347 -4348 -4349 4350 -4351 0
-4347 -4348 4351 0
-4347 -4349 4351 0
4347 4348 4351 0
4347 4349 4351 0
-4350 4351 0
4347 -4348 -4349 4350 -4352 0
-4347 -4348 -4349 -4350 -4352 0
-4347 4350 4352 0
4347 -4350 4352 0
4348 4352 0
4349 4352 0
-5609 5610 5615 5616 -4353 0
5609 -5610 -5615 5616 -4353 0
-5609 -5610 4353 0
-5609 -5615 4353 0
5609 5610 4353 0
5609 5615 4353 0
-5616 4353 0
5609 -5610 -5615 5616 -4354 0
-5609 -5610 -5615 -5616 -4354 0
-5609 5616 4354 0
5609 -5616 4354 0
5610 4354 0
5615 4354 0
-5619 5620 5623 5624 -4355 0
5619 -5620 -5623 5624 -4355 0
-5619 -5620 4355 0
-5619 -5623 4355 0
5619 5620 4355 0
5619 5623 4355 0
-5624 4355 0
5619 -5620 -5623 5624 -4356 0
-5619 -5620 -5623 -5624 -4356 0
-5619 5624 4356 0
5619 -5624 4356 0
5620 4356 0
5623 4356 0
-4353 4354 4355 4356 -4357 0
4353 -4354 -4355 4356 -4357 0
-4353 -4354 4357 0
-4353 -4355 4357 0
4353 4354 4357 0
4353 4355 4357 0
-4356 4357 0
4353 -4354 -4355 4356 -4358 0
-4353 -4354 -4355 -4356 -4358 0
-4353 4356 4358 0
4353 -4356 4358 0
4354 4358 0
4355 4358 0
115 -116 5645 5646 -4359 0
-115 116 -5645 5646 -4359 0
-115 -116 4359 0
-115 5645 4359 0
115 116 4359 0
115 -5645 4359 0
-5646 4359 0
-115 116 -5645 5646 -4360 0
-115 -116 -5645 -5646 -4360 0
-116 5646 4360 0
116 -5646 4360 0
115 4360 0
5645 4360 0
169 -170 5647 5648 -4361 0
-169 170 -5647 5648 -4361 0
-169 -170 4361 0
-169 5647 4361 0
169 170 4361 0
169 -5647 4361 0
-5648 4361 0
-169 170 -5647 5648 -4362 0
-169 -170 -5647 -5648 -4362 0
-170 5648 4362 0
170 -5648 4362 0
169 4362 0
5647 4362 0
-4359 4360 4361 4362 -4363 0
4359 -4360 -4361 4362 -4363 0
-4359 -4360 4363 0
-4359 -4361 4363 0
4359 4360 4363 0
4359 4361 4363 0
-4362 4363 0
4359 -4360 -4361 4362 -4364 0
-4359 -4360 -4361 -4362 -4364 0
-4359 4362 4364 0
4359 -4362 4364 0
4360 4364 0
4361 4364 0
-5631 5632 5635 5636 -4365 0
5631 -5632 -5635 5636 -4365 0
-5631 -5632 4365 0
-5631 -5635 4365 0
5631 5632 4365 0
5631 5635 4365 0
-5636 4365 0
5631 -5632 -5635 5636 -4366 0
-5631 -5632 -5635 -5636 -4366 0
-5631 5636 4366 0
5631 -5636 4366 0
5632 4366 0
5635 4366 0
-5639 5640 5643 5644 -4367 0
5639 -5640 -5643 5644 -4367 0
-5639 -5640 4367 0
-5639 -5643 4367 0
5639 5640 4367 0
5639 5643 4367 0
-5644 4367 0
5639 -5640 -5643 5644 -4368 0
-5639 -5640 -5643 -5644 -4368 0
-5639 5644 4368 0
5639 -5644 4368 0
5640 4368 0
5643 4368 0
-4365 4366 4367 4368 -4369 0
4365 -4366 -4367 4368 -4369 0
-4365 -4366 4369 0
-4365 -4367 4369 0
4365 4366 4369 0
4365 4367 4369 0
-4368 4369 0
4365 -4366 -4367 4368 -4370 0
-4365 -4366 -4367 -4368 -4370 0
-4365 4368 4370 0
4365 -4368 4370 0
4366 4370 0
4367 4370 0
81 -82 179 180 -4371 0
-81 82 179 -180 -4371 0
-81 -82 4371 0
-81 180 4371 0
81 82 4371 0
81 -180 4371 0
-179 4371 0
-81 82 179 -180 -4372 0
-81 -82 -179 -180 -4372 0
-82 179 4372 0
82 -179 4372 0
81 4372 0
180 4372 0
-5651 5652 5655 5656 -4373 0
5651 -5652 -5655 5656 -4373 0
-5651 -5652 4373 0
-5651 -5655 4373 0
5651 5652 4373 0
5651 5655 4373 0
-5656 4373 0
5651 -5652 -5655 5656 -4374 0
-5651 -5652 -5655 -5656 -4374 0
-5651 5656 4374 0
5651 -5656 4374 0
5652 4374 0
5655 4374 0
-5659 5660 5661 5662 -4375 0
5659 -5660 -5661 5662 -4375 0
-5659 -5660 4375 0
-5659 -5661 4375 0
5659 5660 4375 0
5659 5661 4375 0
-5662 4375 0
5659 -5660 -5661 5662 -4376 0
-5659 -5660 -5661 -5662 -4376 0
-5659 5662 4376 0
5659 -5662 4376 0
5660 4376 0
5661 4376 0
-4373 4374 4375 4376 -4377 0
4373 -4374 -4375 4376 -4377 0
-4373 -4374 4377 0
-4373 -4375 4377 0
4373 4374 4377 0
4373 4375 4377 0
-4376 4377 0
4373 -4374 -4375 4376 -4378 0
-4373 -4374 -4375 -4376 -4378 0
-4373 4376 4378 0
4373 -4376 4378 0
4374 4378 0
4375 4378 0
-4927 4928 4933 4934 -4379 0
4927 -4928 -4933 4934 -4379 0
-4927 -4928 4379 0
-4927 -4933 4379 0
4927 4928 4379 0
4927 4933 4379 0
-4934 4379 0
4927 -4928 -4933 4934 -4380 0
-4927 -4928 -4933 -4934 -4380 0
-4927 4934 4380 0
4927 -4934 4380 0
4928 4380 0
4933 4380 0
-4939 4940 4945 4946 -4381 0
4939 -4940 -4945 4946 -4381 0
-4939 -4940 4381 0
-4939 -4945 4381 0
4939 4940 4381 0
4939 4945 4381 0
-4946 4381 0
4939 -4940 -4945 4946 -4382 0
-4939 -4940 -4945 -4946 -4382 0
-4939 4946 4382 0
4939 -4946 4382 0
4940 4382 0
4945 4382 0
-4379 4380 4381 4382 -4383 0
4379 -4380 -4381 4382 -4383 0
-4379 -4380 4383 0
-4379 -4381 4383 0
4379 4380 4383 0
4379 4381 4383 0
-4382 4383 0
4379 -4380 -4381 4382 -4384 0
-4379 -4380 -4381 -4382 -4384 0
-4379 4382 4384 0
4379 -4382 4384 0
4380 4384 0
4381 4384 0
-4951 4952 4957 4958 -4385 0
4951 -4952 -4957 4958 -4385 0
-4951 -4952 4385 0
-4951 -4957 4385 0
4951 4952 4385 0
4951 4957 4385 0
-4958 4385 0
4951 -4952 -4957 4958 -4386 0
-4951 -4952 -4957 -4958 -4386 0
-4951 4958 4386 0
4951 -4958 4386 0
4952 4386 0
4957 4386 0
-4963 4964 4969 4970 -4387 0
4963 -4964 -4969 4970 -4387 0
-4963 -4964 4387 0
-4963 -4969 4387 0
4963 4964 4387 0
4963 4969 4387 0
-4970 4387 0
4963 -4964 -4969 4970 -4388 0
-4963 -4964 -4969 -4970 -4388 0
-4963 4970 4388 0
4963 -4970 4388 0
4964 4388 0
4969 4388 0
-4385 4386 4387 4388 -4389 0
4385 -4386 -4387 4388 -4389 0
-4385 -4386 4389 0
-4385 -4387 4389 0
4385 4386 4389 0
4385 4387 4389 0
-4388 4389 0
4385 -4386 -4387 4388 -4390 0
-4385 -4386 -4387 -4388 -4390 0
-4385 4388 4390 0
4385 -4388 4390 0
4386 4390 0
4387 4390 0
69 -70 89 90 -4391 0
-69 70 89 -90 -4391 0
-69 -70 4391 0
-69 90 4391 0
69 70 4391 0
69 -90 4391 0
-89 4391 0
-69 70 89 -90 -4392 0
-69 -70 -89 -90 -4392 0
-70 89 4392 0
70 -89 4392 0
69 4392 0
90 4392 0
-3245 3246 3973 3974 -4393 0
3245 -3246 -3973 3974 -4393 0
-3245 -3246 4393 0
-3245 -3973 4393 0
3245 3246 4393 0
3245 3973 4393 0
-3974 4393 0
3245 -3246 -3973 3974 -4394 0
-3245 -3246 -3973 -3974 -4394 0
-3245 3974 4394 0
3245 -3974 4394 0
3246 4394 0
3973 4394 0
-4391 4392 4393 4394 -4395 0
4391 -4392 -4393 4394 -4395 0
-4391 -4392 4395 0
-4391 -4393 4395 0
4391 4392 4395 0
4391 4393 4395 0
-4394 4395 0
4391 -4392 -4393 4394 -4396 0
-4391 -4392 -4393 -4394 -4396 0
-4391 4394 4396 0
4391 -4394 4396 0
4392 4396 0
4393 4396 0
43 -44 89 90 -4397 0
-43 44 89 -90 -4397 0
-43 -44 4397 0
-43 90 4397 0
43 44 4397 0
43 -90 4397 0
-89 4397 0
-43 44 89 -90 -4398 0
-43 -44 -89 -90 -4398 0
-44 89 4398 0
44 -89 4398 0
43 4398 0
90 4398 0
-3245 3246 3973 3974 -4399 0
3245 -3246 -3973 3974 -4399 0
-3245 -3246 4399 0
-3245 -3973 4399 0
3245 3246 4399 0
3245 3973 4399 0
-3974 4399 0
3245 -3246 -3973 3974 -4400 0
-3245 -3246 -3973 -3974 -4400 0
-3245 3974 4400 0
3245 -3974 4400 0
3246 4400 0
3973 4400 0
-4397 4398 4399 4400 -4401 0
4397 -4398 -4399 4400 -4401 0
-4397 -4398 4401 0
-4397 -4399 4401 0
4397 4398 4401 0
4397 4399 4401 0
-4400 4401 0
4397 -4398 -4399 4400 -4402 0
-4397 -4398 -4399 -4400 -4402 0
-4397 4400 4402 0
4397 -4400 4402 0
4398 4402 0
4399 4402 0
-4427 4428 4429 4430 -4403 0
4427 -4428 -4429 4430 -4403 0
-4427 -4428 4403 0
-4427 -4429 4403 0
4427 4428 4403 0
4427 4429 4403 0
-4430 4403 0
4427 -4428 -4429 4430 -4404 0
-4427 -4428 -4429 -4430 -4404 0
-4427 4430 4404 0
4427 -4430 4404 0
4428 4404 0
4429 4404 0
183 -184 3973 3974 -4405 0
-183 184 -3973 3974 -4405 0
-183 -184 4405 0
-183 3973 4405 0
183 184 4405 0
183 -3973 4405 0
-3974 4405 0
-183 184 -3973 3974 -4406 0
-183 -184 -3973 -3974 -4406 0
-184 3974 4406 0
184 -3974 4406 0
183 4406 0
3973 4406 0
-4403 4404 4405 4406 -4407 0
4403 -4404 -4405 4406 -4407 0
-4403 -4404 4407 0
-4403 -4405 4407 0
4403 4404 4407 0
4403 4405 4407 0
-4406 4407 0
4403 -4404 -4405 4406 -4408 0
-4403 -4404 -4405 -4406 -4408 0
-4403 4406 4408 0
4403 -4406 4408 0
4404 4408 0
4405 4408 0
183 -184 3973 3974 -4409 0
-183 184 -3973 3974 -4409 0
-183 -184 4409 0
-183 3973 4409 0
183 184 4409 0
183 -3973 4409 0
-3974 4409 0
-183 184 -3973 3974 -4410 0
-183 -184 -3973 -3974 -4410 0
-184 3974 4410 0
184 -3974 4410 0
183 4410 0
3973 4410 0
-4403 4404 4409 4410 -4411 0
4403 -4404 -4409 4410 -4411 0
-4403 -4404 4411 0
-4403 -4409 4411 0
4403 4404 4411 0
4403 4409 4411 0
-4410 4411 0
4403 -4404 -4409 4410 -4412 0
-4403 -4404 -4409 -4410 -4412 0
-4403 4410 4412 0
4403 -4410 4412 0
4404 4412 0
4409 4412 0
-4483 4484 4485 4486 -4413 0
4483 -4484 -4485 4486 -4413 0
-4483 -4484 4413 0
-4483 -4485 4413 0
4483 4484 4413 0
4483 4485 4413 0
-4486 4413 0
4483 -4484 -4485 4486 -4414 0
-4483 -4484 -4485 -4486 -4414 0
-4483 4486 4414 0
4483 -4486 4414 0
4484 4414 0
4485 4414 0
191 -192 4459 4460 -4415 0
-191 192 -4459 4460 -4415 0
-191 -192 4415 0
-191 4459 4415 0
191 192 4415 0
191 -4459 4415 0
-4460 4415 0
-191 192 -4459 4460 -4416 0
-191 -192 -4459 -4460 -4416 0
-192 4460 4416 0
192 -4460 4416 0
191 4416 0
4459 4416 0
-3241 3242 3245 3246 -4417 0
3241 -3242 -3245 3246 -4417 0
-3241 -3242 4417 0
-3241 -3245 4417 0
3241 3242 4417 0
3241 3245 4417 0
-3246 4417 0
3241 -3242 -3245 3246 -4418 0
-3241 -3242 -3245 -3246 -4418 0
-3241 3246 4418 0
3241 -3246 4418 0
3242 4418 0
3245 4418 0
205 -206 3973 3974 -4419 0
-205 206 -3973 3974 -4419 0
-205 -206 4419 0
-205 3973 4419 0
205 206 4419 0
205 -3973 4419 0
-3974 4419 0
-205 206 -3973 3974 -4420 0
-205 -206 -3973 -3974 -4420 0
-206 3974 4420 0
206 -3974 4420 0
205 4420 0
3973 4420 0
-4215 4216 4419 4420 -4421 0
4215 -4216 -4419 4420 -4421 0
-4215 -4216 4421 0
-4215 -4419 4421 0
4215 4216 4421 0
4215 4419 4421 0
-4420 4421 0
4215 -4216 -4419 4420 -4422 0
-4215 -4216 -4419 -4420 -4422 0
-4215 4420 4422 0
4215 -4420 4422 0
4216 4422 0
4419 4422 0
-3241 3242 3245 3246 -4423 0
3241 -3242 -3245 3246 -4423 0
-3241 -3242 4423 0
-3241 -3245 4423 0
3241 3242 4423 0
3241 3245 4423 0
-3246 4423 0
3241 -3242 -3245 3246 -4424 0
-3241 -3242 -3245 -3246 -4424 0
-3241 3246 4424 0
3241 -3246 4424 0
3242 4424 0
3245 4424 0
-3973 3974 4423 4424 -4425 0
3973 -3974 -4423 4424 -4425 0
-3973 -3974 4425 0
-3973 -4423 4425 0
3973 3974 4425 0
3973 4423 4425 0
-4424 4425 0
3973 -3974 -4423 4424 -4426 0
-3973 -3974 -4423 -4424 -4426 0
-3973 4424 4426 0
3973 -4424 4426 0
3974 4426 0
4423 4426 0
185 -186 4471 4472 -4427 0
-185 186 -4471 4472 -4427 0
-185 -186 4427 0
-185 4471 4427 0
185 186 4427 0
185 -4471 4427 0
-4472 4427 0
-185 186 -4471 4472 -4428 0
-185 -186 -4471 -4472 -4428 0
-186 4472 4428 0
186 -4472 4428 0
185 4428 0
4471 4428 0
183 -184 4471 4472 -4429 0
-183 184 -4471 4472 -4429 0
-183 -184 4429 0
-183 4471 4429 0
183 184 4429 0
183 -4471 4429 0
-4472 4429 0
-183 184 -4471 4472 -4430 0
-183 -184 -4471 -4472 -4430 0
-184 4472 4430 0
184 -4472 4430 0
183 4430 0
4471 4430 0
185 -186 3973 3974 -4431 0
-185 186 -3973 3974 -4431 0
-185 -186 4431 0
-185 3973 4431 0
185 186 4431 0
185 -3973 4431 0
-3974 4431 0
-185 186 -3973 3974 -4432 0
-185 -186 -3973 -3974 -4432 0
-186 3974 4432 0
186 -3974 4432 0
185 4432 0
3973 4432 0
183 -184 185 186 -4433 0
-183 184 185 -186 -4433 0
-183 -184 4433 0
-183 186 4433 0
183 184 4433 0
183 -186 4433 0
-185 4433 0
-183 184 185 -186 -4434 0
-183 -184 -185 -186 -4434 0
-184 185 4434 0
184 -185 4434 0
183 4434 0
186 4434 0
-3973 3974 4403 4404 -4435 0
3973 -3974 -4403 4404 -4435 0
-3973 -3974 4435 0
-3973 -4403 4435 0
3973 3974 4435 0
3973 4403 4435 0
-4404 4435 0
3973 -3974 -4403 4404 -4436 0
-3973 -3974 -4403 -4404 -4436 0
-3973 4404 4436 0
3973 -4404 4436 0
3974 4436 0
4403 4436 0
-4433 4434 4435 4436 -4437 0
4433 -4434 -4435 4436 -4437 0
-4433 -4434 4437 0
-4433 -4435 4437 0
4433 4434 4437 0
4433 4435 4437 0
-4436 4437 0
4433 -4434 -4435 4436 -4438 0
-4433 -4434 -4435 -4436 -4438 0
-4433 4436 4438 0
4433 -4436 4438 0
4434 4438 0
4435 4438 0
205 -206 3973 3974 -4439 0
-205 206 -3973 3974 -4439 0
-205 -206 4439 0
-205 3973 4439 0
205 206 4439 0
205 -3973 4439 0
-3974 4439 0
-205 206 -3973 3974 -4440 0
-205 -206 -3973 -3974 -4440 0
-206 3974 4440 0
206 -3974 4440 0
205 4440 0
3973 4440 0
-4805 4806 4807 4808 -4441 0
4805 -4806 -4807 4808 -4441 0
-4805 -4806 4441 0
-4805 -4807 4441 0
4805 4806 4441 0
4805 4807 4441 0
-4808 4441 0
4805 -4806 -4807 4808 -4442 0
-4805 -4806 -4807 -4808 -4442 0
-4805 4808 4442 0
4805 -4808 4442 0
4806 4442 0
4807 4442 0
-4439 4440 4441 4442 -4443 0
4439 -4440 -4441 4442 -4443 0
-4439 -4440 4443 0
-4439 -4441 4443 0
4439 4440 4443 0
4439 4441 4443 0
-4442 4443 0
4439 -4440 -4441 4442 -4444 0
-4439 -4440 -4441 -4442 -4444 0
-4439 4442 4444 0
4439 -4442 4444 0
4440 4444 0
4441 4444 0
-3241 3242 3245 3246 -4445 0
3241 -3242 -3245 3246 -4445 0
-3241 -3242 4445 0
-3241 -3245 4445 0
3241 3242 4445 0
3241 3245 4445 0
-3246 4445 0
3241 -3242 -3245 3246 -4446 0
-3241 -3242 -3245 -3246 -4446 0
-3241 3246 4446 0
3241 -3246 4446 0
3242 4446 0
3245 4446 0
183 -184 185 186 -4447 0
-183 184 185 -186 -4447 0
-183 -184 4447 0
-183 186 4447 0
183 184 4447 0
183 -186 4447 0
-185 4447 0
-183 184 185 -186 -4448 0
-183 -184 -185 -186 -4448 0
-184 185 4448 0
184 -185 4448 0
183 4448 0
186 4448 0
-3973 3974 4447 4448 -4449 0
3973 -3974 -4447 4448 -4449 0
-3973 -3974 4449 0
-3973 -4447 4449 0
3973 3974 4449 0
3973 4447 4449 0
-4448 4449 0
3973 -3974 -4447 4448 -4450 0
-3973 -3974 -4447 -4448 -4450 0
-3973 4448 4450 0
3973 -4448 4450 0
3974 4450 0
4447 4450 0
-3241 3242 3245 3246 -4451 0
3241 -3242 -3245 3246 -4451 0
-3241 -3242 4451 0
-3241 -3245 4451 0
3241 3242 4451 0
3241 3245 4451 0
-3246 4451 0
3241 -3242 -3245 3246 -4452 0
-3241 -3242 -3245 -3246 -4452 0
-3241 3246 4452 0
3241 -3246 4452 0
3242 4452 0
3245 4452 0
-3973 3974 4451 4452 -4453 0
3973 -3974 -4451 4452 -4453 0
-3973 -3974 4453 0
-3973 -4451 4453 0
3973 3974 4453 0
3973 4451 4453 0
-4452 4453 0
3973 -3974 -4451 4452 -4454 0
-3973 -3974 -4451 -4452 -4454 0
-3973 4452 4454 0
3973 -4452 4454 0
3974 4454 0
4451 4454 0
-3249 3250 3945 3946 -4455 0
3249 -3250 -3945 3946 -4455 0
-3249 -3250 4455 0
-3249 -3945 4455 0
3249 3250 4455 0
3249 3945 4455 0
-3946 4455 0
3249 -3250 -3945 3946 -4456 0
-3249 -3250 -3945 -3946 -4456 0
-3249 3946 4456 0
3249 -3946 4456 0
3250 4456 0
3945 4456 0
1 -2 63 64 -4457 0
-1 2 63 -64 -4457 0
-1 -2 4457 0
-1 64 4457 0
1 2 4457 0
1 -64 4457 0
-63 4457 0
-1 2 63 -64 -4458 0
-1 -2 -63 -64 -4458 0
-2 63 4458 0
2 -63 4458 0
1 4458 0
64 4458 0
-4455 4456 4457 4458 -4459 0
4455 -4456 -4457 4458 -4459 0
-4455 -4456 4459 0
-4455 -4457 4459 0
4455 4456 4459 0
4455 4457 4459 0
-4458 4459 0
4455 -4456 -4457 4458 -4460 0
-4455 -4456 -4457 -4458 -4460 0
-4455 4458 4460 0
4455 -4458 4460 0
4456 4460 0
4457 4460 0
183 -184 4413 4414 -4461 0
-183 184 -4413 4414 -4461 0
-183 -184 4461 0
-183 4413 4461 0
183 184 4461 0
183 -4413 4461 0
-4414 4461 0
-183 184 -4413 4414 -4462 0
-183 -184 -4413 -4414 -4462 0
-184 4414 4462 0
184 -4414 4462 0
183 4462 0
4413 4462 0
185 -186 4413 4414 -4463 0
-185 186 -4413 4414 -4463 0
-185 -186 4463 0
-185 4413 4463 0
185 186 4463 0
185 -4413 4463 0
-4414 4463 0
-185 186 -4413 4414 -4464 0
-185 -186 -4413 -4414 -4464 0
-186 4414 4464 0
186 -4414 4464 0
185 4464 0
4413 4464 0
-4459 4460 4463 4464 -4465 0
4459 -4460 -4463 4464 -4465 0
-4459 -4460 4465 0
-4459 -4463 4465 0
4459 4460 4465 0
4459 4463 4465 0
-4464 4465 0
4459 -4460 -4463 4464 -4466 0
-4459 -4460 -4463 -4464 -4466 0
-4459 4464 4466 0
4459 -4464 4466 0
4460 4466 0
4463 4466 0
185 -186 191 192 -4467 0
-185 186 191 -192 -4467 0
-185 -186 4467 0
-185 192 4467 0
185 186 4467 0
185 -192 4467 0
-191 4467 0
-185 186 191 -192 -4468 0
-185 -186 -191 -192 -4468 0
-186 191 4468 0
186 -191 4468 0
185 4468 0
192 4468 0
-4459 4460 4467 4468 -4469 0
4459 -4460 -4467 4468 -4469 0
-4459 -4460 4469 0
-4459 -4467 4469 0
4459 4460 4469 0
4459 4467 4469 0
-4468 4469 0
4459 -4460 -4467 4468 -4470 0
-4459 -4460 -4467 -4468 -4470 0
-4459 4468 4470 0
4459 -4468 4470 0
4460 4470 0
4467 4470 0
-4487 4488 4489 4490 -4471 0
4487 -4488 -4489 4490 -4471 0
-4487 -4488 4471 0
-4487 -4489 4471 0
4487 4488 4471 0
4487 4489 4471 0
-4490 4471 0
4487 -4488 -4489 4490 -4472 0
-4487 -4488 -4489 -4490 -4472 0
-4487 4490 4472 0
4487 -4490 4472 0
4488 4472 0
4489 4472 0
191 -192 4471 4472 -4473 0
-191 192 -4471 4472 -4473 0
-191 -192 4473 0
-191 4471 4473 0
191 192 4473 0
191 -4471 4473 0
-4472 4473 0
-191 192 -4471 4472 -4474 0
-191 -192 -4471 -4472 -4474 0
-192 4472 4474 0
192 -4472 4474 0
191 4474 0
4471 4474 0
183 -184 191 192 -4475 0
-183 184 191 -192 -4475 0
-183 -184 4475 0
-183 192 4475 0
183 184 4475 0
183 -192 4475 0
-191 4475 0
-183 184 191 -192 -4476 0
-183 -184 -191 -192 -4476 0
-184 191 4476 0
184 -191 4476 0
183 4476 0
192 4476 0
-4459 4460 4475 4476 -4477 0
4459 -4460 -4475 4476 -4477 0
-4459 -4460 4477 0
-4459 -4475 4477 0
4459 4460 4477 0
4459 4475 4477 0
-4476 4477 0
4459 -4460 -4475 4476 -4478 0
-4459 -4460 -4475 -4476 -4478 0
-4459 4476 4478 0
4459 -4476 4478 0
4460 4478 0
4475 4478 0
-4413 4414 4471 4472 -4479 0
4413 -4414 -4471 4472 -4479 0
-4413 -4414 4479 0
-4413 -4471 4479 0
4413 4414 4479 0
4413 4471 4479 0
-4472 4479 0
4413 -4414 -4471 4472 -4480 0
-4413 -4414 -4471 -4472 -4480 0
-4413 4472 4480 0
4413 -4472 4480 0
4414 4480 0
4471 4480 0
-4459 4460 4479 4480 -4481 0
4459 -4460 -4479 4480 -4481 0
-4459 -4460 4481 0
-4459 -4479 4481 0
4459 4460 4481 0
4459 4479 4481 0
-4480 4481 0
4459 -4460 -4479 4480 -4482 0
-4459 -4460 -4479 -4480 -4482 0
-4459 4480 4482 0
4459 -4480 4482 0
4460 4482 0
4479 4482 0
-4885 4886 4899 4900 -4483 0
4885 -4886 -4899 4900 -4483 0
-4885 -4886 4483 0
-4885 -4899 4483 0
4885 4886 4483 0
4885 4899 4483 0
-4900 4483 0
4885 -4886 -4899 4900 -4484 0
-4885 -4886 -4899 -4900 -4484 0
-4885 4900 4484 0
4885 -4900 4484 0
4886 4484 0
4899 4484 0
-4901 4902 4913 4914 -4485 0
4901 -4902 -4913 4914 -4485 0
-4901 -4902 4485 0
-4901 -4913 4485 0
4901 4902 4485 0
4901 4913 4485 0
-4914 4485 0
4901 -4902 -4913 4914 -4486 0
-4901 -4902 -4913 -4914 -4486 0
-4901 4914 4486 0
4901 -4914 4486 0
4902 4486 0
4913 4486 0
-4987 4988 4989 4990 -4487 0
4987 -4988 -4989 4990 -4487 0
-4987 -4988 4487 0
-4987 -4989 4487 0
4987 4988 4487 0
4987 4989 4487 0
-4990 4487 0
4987 -4988 -4989 4990 -4488 0
-4987 -4988 -4989 -4990 -4488 0
-4987 4990 4488 0
4987 -4990 4488 0
4988 4488 0
4989 4488 0
-4991 4992 4993 4994 -4489 0
4991 -4992 -4993 4994 -4489 0
-4991 -4992 4489 0
-4991 -4993 4489 0
4991 4992 4489 0
4991 4993 4489 0
-4994 4489 0
4991 -4992 -4993 4994 -4490 0
-4991 -4992 -4993 -4994 -4490 0
-4991 4994 4490 0
4991 -4994 4490 0
4992 4490 0
4993 4490 0
3 -4 3973 3974 -4491 0
-3 4 -3973 3974 -4491 0
-3 -4 4491 0
-3 3973 4491 0
3 4 4491 0
3 -3973 4491 0
-3974 4491 0
-3 4 -3973 3974 -4492 0
-3 -4 -3973 -3974 -4492 0
-4 3974 4492 0
4 -3974 4492 0
3 4492 0
3973 4492 0
3 -4 3973 3974 -4493 0
-3 4 -3973 3974 -4493 0
-3 -4 4493 0
-3 3973 4493 0
3 4 4493 0
3 -3973 4493 0
-3974 4493 0
-3 4 -3973 3974 -4494 0
-3 -4 -3973 -3974 -4494 0
-4 3974 4494 0
4 -3974 4494 0
3 4494 0
3973 4494 0
3 -4 5 6 -4495 0
-3 4 5 -6 -4495 0
-3 -4 4495 0
-3 6 4495 0
3 4 4495 0
3 -6 4495 0
-5 4495 0
-3 4 5 -6 -4496 0
-3 -4 -5 -6 -4496 0
-4 5 4496 0
4 -5 4496 0
3 4496 0
6 4496 0
-3973 3974 4471 4472 -4497 0
3973 -3974 -4471 4472 -4497 0
-3973 -3974 4497 0
-3973 -4471 4497 0
3973 3974 4497 0
3973 4471 4497 0
-4472 4497 0
3973 -3974 -4471 4472 -4498 0
-3973 -3974 -4471 -4472 -4498 0
-3973 4472 4498 0
3973 -4472 4498 0
3974 4498 0
4471 4498 0
5 -6 3973 3974 -4499 0
-5 6 -3973 3974 -4499 0
-5 -6 4499 0
-5 3973 4499 0
5 6 4499 0
5 -3973 4499 0
-3974 4499 0
-5 6 -3973 3974 -4500 0
-5 -6 -3973 -3974 -4500 0
-6 3974 4500 0
6 -3974 4500 0
5 4500 0
3973 4500 0
3 -4 5 6 -4501 0
-3 4 5 -6 -4501 0
-3 -4 4501 0
-3 6 4501 0
3 4 4501 0
3 -6 4501 0
-5 4501 0
-3 4 5 -6 -4502 0
-3 -4 -5 -6 -4502 0
-4 5 4502 0
4 -5 4502 0
3 4502 0
6 4502 0
109 -110 111 112 -4503 0
-109 110 111 -112 -4503 0
-109 -110 4503 0
-109 112 4503 0
109 110 4503 0
109 -112 4503 0
-111 4503 0
-109 110 111 -112 -4504 0
-109 -110 -111 -112 -4504 0
-110 111 4504 0
110 -111 4504 0
109 4504 0
112 4504 0
27 -28 31 32 -4505 0
-27 28 31 -32 -4505 0
-27 -28 4505 0
-27 32 4505 0
27 28 4505 0
27 -32 4505 0
-31 4505 0
-27 28 31 -32 -4506 0
-27 -28 -31 -32 -4506 0
-28 31 4506 0
28 -31 4506 0
27 4506 0
32 4506 0
7 -8 139 140 -4507 0
-7 8 139 -140 -4507 0
-7 -8 4507 0
-7 140 4507 0
7 8 4507 0
7 -140 4507 0
-139 4507 0
-7 8 139 -140 -4508 0
-7 -8 -139 -140 -4508 0
-8 139 4508 0
8 -139 4508 0
7 4508 0
140 4508 0
11 -12 139 140 -4509 0
-11 12 139 -140 -4509 0
-11 -12 4509 0
-11 140 4509 0
11 12 4509 0
11 -140 4509 0
-139 4509 0
-11 12 139 -140 -4510 0
-11 -12 -139 -140 -4510 0
-12 139 4510 0
12 -139 4510 0
11 4510 0
140 4510 0
141 -142 4509 4510 -4511 0
-141 142 -4509 4510 -4511 0
-141 -142 4511 0
-141 4509 4511 0
141 142 4511 0
141 -4509 4511 0
-4510 4511 0
-141 142 -4509 4510 -4512 0
-141 -142 -4509 -4510 -4512 0
-142 4510 4512 0
142 -4510 4512 0
141 4512 0
4509 4512 0
9 -10 139 140 -4513 0
-9 10 139 -140 -4513 0
-9 -10 4513 0
-9 140 4513 0
9 10 4513 0
9 -140 4513 0
-139 4513 0
-9 10 139 -140 -4514 0
-9 -10 -139 -140 -4514 0
-10 139 4514 0
10 -139 4514 0
9 4514 0
140 4514 0
141 -142 4513 4514 -4515 0
-141 142 -4513 4514 -4515 0
-141 -142 4515 0
-141 4513 4515 0
141 142 4515 0
141 -4513 4515 0
-4514 4515 0
-141 142 -4513 4514 -4516 0
-141 -142 -4513 -4514 -4516 0
-142 4514 4516 0
142 -4514 4516 0
141 4516 0
4513 4516 0
11 -12 107 108 -4517 0
-11 12 107 -108 -4517 0
-11 -12 4517 0
-11 108 4517 0
11 12 4517 0
11 -108 4517 0
-107 4517 0
-11 12 107 -108 -4518 0
-11 -12 -107 -108 -4518 0
-12 107 4518 0
12 -107 4518 0
11 4518 0
108 4518 0
9 -10 107 108 -4519 0
-9 10 107 -108 -4519 0
-9 -10 4519 0
-9 108 4519 0
9 10 4519 0
9 -108 4519 0
-107 4519 0
-9 10 107 -108 -4520 0
-9 -10 -107 -108 -4520 0
-10 107 4520 0
10 -107 4520 0
9 4520 0
108 4520 0
169 -170 179 180 -4521 0
-169 170 179 -180 -4521 0
-169 -170 4521 0
-169 180 4521 0
169 170 4521 0
169 -180 4521 0
-179 4521 0
-169 170 179 -180 -4522 0
-169 -170 -179 -180 -4522 0
-170 179 4522 0
170 -179 4522 0
169 4522 0
180 4522 0
169 -170 171 172 -4523 0
-169 170 171 -172 -4523 0
-169 -170 4523 0
-169 172 4523 0
169 170 4523 0
169 -172 4523 0
-171 4523 0
-169 170 171 -172 -4524 0
-169 -170 -171 -172 -4524 0
-170 171 4524 0
170 -171 4524 0
169 4524 0
172 4524 0
73 -74 75 76 -4525 0
-73 74 75 -76 -4525 0
-73 -74 4525 0
-73 76 4525 0
73 74 4525 0
73 -76 4525 0
-75 4525 0
-73 74 75 -76 -4526 0
-73 -74 -75 -76 -4526 0
-74 75 4526 0
74 -75 4526 0
73 4526 0
76 4526 0
77 -78 3759 3760 -4527 0
-77 78 -3759 3760 -4527 0
-77 -78 4527 0
-77 3759 4527 0
77 78 4527 0
77 -3759 4527 0
-3760 4527 0
-77 78 -3759 3760 -4528 0
-77 -78 -3759 -3760 -4528 0
-78 3760 4528 0
78 -3760 4528 0
77 4528 0
3759 4528 0
-4051 4052 4035 4036 -4529 0
4051 -4052 -4035 4036 -4529 0
-4051 -4052 4529 0
-4051 -4035 4529 0
4051 4052 4529 0
4051 4035 4529 0
-4036 4529 0
4051 -4052 -4035 4036 -4530 0
-4051 -4052 -4035 -4036 -4530 0
-4051 4036 4530 0
4051 -4036 4530 0
4052 4530 0
4035 4530 0
71 -72 4035 4036 -4531 0
-71 72 -4035 4036 -4531 0
-71 -72 4531 0
-71 4035 4531 0
71 72 4531 0
71 -4035 4531 0
-4036 4531 0
-71 72 -4035 4036 -4532 0
-71 -72 -4035 -4036 -4532 0
-72 4036 4532 0
72 -4036 4532 0
71 4532 0
4035 4532 0
71 -72 4039 4040 -4533 0
-71 72 -4039 4040 -4533 0
-71 -72 4533 0
-71 4039 4533 0
71 72 4533 0
71 -4039 4533 0
-4040 4533 0
-71 72 -4039 4040 -4534 0
-71 -72 -4039 -4040 -4534 0
-72 4040 4534 0
72 -4040 4534 0
71 4534 0
4039 4534 0
-3735 3736 4051 4052 -4535 0
3735 -3736 -4051 4052 -4535 0
-3735 -3736 4535 0
-3735 -4051 4535 0
3735 3736 4535 0
3735 4051 4535 0
-4052 4535 0
3735 -3736 -4051 4052 -4536 0
-3735 -3736 -4051 -4052 -4536 0
-3735 4052 4536 0
3735 -4052 4536 0
3736 4536 0
4051 4536 0
67 -68 91 92 -4537 0
-67 68 91 -92 -4537 0
-67 -68 4537 0
-67 92 4537 0
67 68 4537 0
67 -92 4537 0
-91 4537 0
-67 68 91 -92 -4538 0
-67 -68 -91 -92 -4538 0
-68 91 4538 0
68 -91 4538 0
67 4538 0
92 4538 0
-5003 5004 5009 5010 -4539 0
5003 -5004 -5009 5010 -4539 0
-5003 -5004 4539 0
-5003 -5009 4539 0
5003 5004 4539 0
5003 5009 4539 0
-5010 4539 0
5003 -5004 -5009 5010 -4540 0
-5003 -5004 -5009 -5010 -4540 0
-5003 5010 4540 0
5003 -5010 4540 0
5004 4540 0
5009 4540 0
-5013 5014 5019 5020 -4541 0
5013 -5014 -5019 5020 -4541 0
-5013 -5014 4541 0
-5013 -5019 4541 0
5013 5014 4541 0
5013 5019 4541 0
-5020 4541 0
5013 -5014 -5019 5020 -4542 0
-5013 -5014 -5019 -5020 -4542 0
-5013 5020 4542 0
5013 -5020 4542 0
5014 4542 0
5019 4542 0
-5021 5022 5027 5028 -4543 0
5021 -5022 -5027 5028 -4543 0
-5021 -5022 4543 0
-5021 -5027 4543 0
5021 5022 4543 0
5021 5027 4543 0
-5028 4543 0
5021 -5022 -5027 5028 -4544 0
-5021 -5022 -5027 -5028 -4544 0
-5021 5028 4544 0
5021 -5028 4544 0
5022 4544 0
5027 4544 0
-5029 5030 5035 5036 -4545 0
5029 -5030 -5035 5036 -4545 0
-5029 -5030 4545 0
-5029 -5035 4545 0
5029 5030 4545 0
5029 5035 4545 0
-5036 4545 0
5029 -5030 -5035 5036 -4546 0
-5029 -5030 -5035 -5036 -4546 0
-5029 5036 4546 0
5029 -5036 4546 0
5030 4546 0
5035 4546 0
97 -98 103 104 -4547 0
-97 98 103 -104 -4547 0
-97 -98 4547 0
-97 104 4547 0
97 98 4547 0
97 -104 4547 0
-103 4547 0
-97 98 103 -104 -4548 0
-97 -98 -103 -104 -4548 0
-98 103 4548 0
98 -103 4548 0
97 4548 0
104 4548 0
-5037 5038 5039 5040 -4549 0
5037 -5038 -5039 5040 -4549 0
-5037 -5038 4549 0
-5037 -5039 4549 0
5037 5038 4549 0
5037 5039 4549 0
-5040 4549 0
5037 -5038 -5039 5040 -4550 0
-5037 -5038 -5039 -5040 -4550 0
-5037 5040 4550 0
5037 -5040 4550 0
5038 4550 0
5039 4550 0
-4547 4548 4549 4550 -4551 0
4547 -4548 -4549 4550 -4551 0
-4547 -4548 4551 0
-4547 -4549 4551 0
4547 4548 4551 0
4547 4549 4551 0
-4550 4551 0
4547 -4548 -4549 4550 -4552 0
-4547 -4548 -4549 -4550 -4552 0
-4547 4550 4552 0
4547 -4550 4552 0
4548 4552 0
4549 4552 0
207 -208 209 210 -4553 0
-207 208 209 -210 -4553 0
-207 -208 4553 0
-207 210 4553 0
207 208 4553 0
207 -210 4553 0
-209 4553 0
-207 208 209 -210 -4554 0
-207 -208 -209 -210 -4554 0
-208 209 4554 0
208 -209 4554 0
207 4554 0
210 4554 0
75 -76 197 198 -4555 0
-75 76 197 -198 -4555 0
-75 -76 4555 0
-75 198 4555 0
75 76 4555 0
75 -198 4555 0
-197 4555 0
-75 76 197 -198 -4556 0
-75 -76 -197 -198 -4556 0
-76 197 4556 0
76 -197 4556 0
75 4556 0
198 4556 0
-4415 4416 4555 4556 -4557 0
4415 -4416 -4555 4556 -4557 0
-4415 -4416 4557 0
-4415 -4555 4557 0
4415 4416 4557 0
4415 4555 4557 0
-4556 4557 0
4415 -4416 -4555 4556 -4558 0
-4415 -4416 -4555 -4556 -4558 0
-4415 4556 4558 0
4415 -4556 4558 0
4416 4558 0
4555 4558 0
-4917 4918 4921 4922 -4559 0
4917 -4918 -4921 4922 -4559 0
-4917 -4918 4559 0
-4917 -4921 4559 0
4917 4918 4559 0
4917 4921 4559 0
-4922 4559 0
4917 -4918 -4921 4922 -4560 0
-4917 -4918 -4921 -4922 -4560 0
-4917 4922 4560 0
4917 -4922 4560 0
4918 4560 0
4921 4560 0
179 -180 4559 4560 -4561 0
-179 180 -4559 4560 -4561 0
-179 -180 4561 0
-179 4559 4561 0
179 180 4561 0
179 -4559 4561 0
-4560 4561 0
-179 180 -4559 4560 -4562 0
-179 -180 -4559 -4560 -4562 0
-180 4560 4562 0
180 -4560 4562 0
179 4562 0
4559 4562 0
31 -32 33 34 -4563 0
-31 32 33 -34 -4563 0
-31 -32 4563 0
-31 34 4563 0
31 32 4563 0
31 -34 4563 0
-33 4563 0
-31 32 33 -34 -4564 0
-31 -32 -33 -34 -4564 0
-32 33 4564 0
32 -33 4564 0
31 4564 0
34 4564 0
179 -180 4563 4564 -4565 0
-179 180 -4563 4564 -4565 0
-179 -180 4565 0
-179 4563 4565 0
179 180 4565 0
179 -4563 4565 0
-4564 4565 0
-179 180 -4563 4564 -4566 0
-179 -180 -4563 -4564 -4566 0
-180 4564 4566 0
180 -4564 4566 0
179 4566 0
4563 4566 0
187 -188 3737 3738 -4567 0
-187 188 -3737 3738 -4567 0
-187 -188 4567 0
-187 3737 4567 0
187 188 4567 0
187 -3737 4567 0
-3738 4567 0
-187 188 -3737 3738 -4568 0
-187 -188 -3737 -3738 -4568 0
-188 3738 4568 0
188 -3738 4568 0
187 4568 0
3737 4568 0
33 -34 5491 5492 -4569 0
-33 34 -5491 5492 -4569 0
-33 -34 4569 0
-33 5491 4569 0
33 34 4569 0
33 -5491 4569 0
-5492 4569 0
-33 34 -5491 5492 -4570 0
-33 -34 -5491 -5492 -4570 0
-34 5492 4570 0
34 -5492 4570 0
33 4570 0
5491 4570 0
-3737 3738 5493 5494 -4571 0
3737 -3738 -5493 5494 -4571 0
-3737 -3738 4571 0
-3737 -5493 4571 0
3737 3738 4571 0
3737 5493 4571 0
-5494 4571 0
3737 -3738 -5493 5494 -4572 0
-3737 -3738 -5493 -5494 -4572 0
-3737 5494 4572 0
3737 -5494 4572 0
3738 4572 0
5493 4572 0
-4569 4570 4571 4572 -4573 0
4569 -4570 -4571 4572 -4573 0
-4569 -4570 4573 0
-4569 -4571 4573 0
4569 4570 4573 0
4569 4571 4573 0
-4572 4573 0
4569 -4570 -4571 4572 -4574 0
-4569 -4570 -4571 -4572 -4574 0
-4569 4572 4574 0
4569 -4572 4574 0
4570 4574 0
4571 4574 0
33 -34 5495 5496 -4575 0
-33 34 -5495 5496 -4575 0
-33 -34 4575 0
-33 5495 4575 0
33 34 4575 0
33 -5495 4575 0
-5496 4575 0
-33 34 -5495 5496 -4576 0
-33 -34 -5495 -5496 -4576 0
-34 5496 4576 0
34 -5496 4576 0
33 4576 0
5495 4576 0
-3737 3738 5497 5498 -4577 0
3737 -3738 -5497 5498 -4577 0
-3737 -3738 4577 0
-3737 -5497 4577 0
3737 3738 4577 0
3737 5497 4577 0
-5498 4577 0
3737 -3738 -5497 5498 -4578 0
-3737 -3738 -5497 -5498 -4578 0
-3737 5498 4578 0
3737 -5498 4578 0
3738 4578 0
5497 4578 0
-4575 4576 4577 4578 -4579 0
4575 -4576 -4577 4578 -4579 0
-4575 -4576 4579 0
-4575 -4577 4579 0
4575 4576 4579 0
4575 4577 4579 0
-4578 4579 0
4575 -4576 -4577 4578 -4580 0
-4575 -4576 -4577 -4578 -4580 0
-4575 4578 4580 0
4575 -4578 4580 0
4576 4580 0
4577 4580 0
149 -150 151 152 -4581 0
-149 150 151 -152 -4581 0
-149 -150 4581 0
-149 152 4581 0
149 150 4581 0
149 -152 4581 0
-151 4581 0
-149 150 151 -152 -4582 0
-149 -150 -151 -152 -4582 0
-150 151 4582 0
150 -151 4582 0
149 4582 0
152 4582 0
153 -154 4581 4582 -4583 0
-153 154 -4581 4582 -4583 0
-153 -154 4583 0
-153 4581 4583 0
153 154 4583 0
153 -4581 4583 0
-4582 4583 0
-153 154 -4581 4582 -4584 0
-153 -154 -4581 -4582 -4584 0
-154 4582 4584 0
154 -4582 4584 0
153 4584 0
4581 4584 0
181 -182 3737 3738 -4585 0
-181 182 -3737 3738 -4585 0
-181 -182 4585 0
-181 3737 4585 0
181 182 4585 0
181 -3737 4585 0
-3738 4585 0
-181 182 -3737 3738 -4586 0
-181 -182 -3737 -3738 -4586 0
-182 3738 4586 0
182 -3738 4586 0
181 4586 0
3737 4586 0
29 -30 31 32 -4587 0
-29 30 31 -32 -4587 0
-29 -30 4587 0
-29 32 4587 0
29 30 4587 0
29 -32 4587 0
-31 4587 0
-29 30 31 -32 -4588 0
-29 -30 -31 -32 -4588 0
-30 31 4588 0
30 -31 4588 0
29 4588 0
32 4588 0
47 -48 49 50 -4589 0
-47 48 49 -50 -4589 0
-47 -48 4589 0
-47 50 4589 0
47 48 4589 0
47 -50 4589 0
-49 4589 0
-47 48 49 -50 -4590 0
-47 -48 -49 -50 -4590 0
-48 49 4590 0
48 -49 4590 0
47 4590 0
50 4590 0
31 -32 181 182 -4591 0
-31 32 181 -182 -4591 0
-31 -32 4591 0
-31 182 4591 0
31 32 4591 0
31 -182 4591 0
-181 4591 0
-31 32 181 -182 -4592 0
-31 -32 -181 -182 -4592 0
-32 181 4592 0
32 -181 4592 0
31 4592 0
182 4592 0
187 -188 189 190 -4593 0
-187 188 189 -190 -4593 0
-187 -188 4593 0
-187 190 4593 0
187 188 4593 0
187 -190 4593 0
-189 4593 0
-187 188 189 -190 -4594 0
-187 -188 -189 -190 -4594 0
-188 189 4594 0
188 -189 4594 0
187 4594 0
190 4594 0
-4591 4592 4593 4594 -4595 0
4591 -4592 -4593 4594 -4595 0
-4591 -4592 4595 0
-4591 -4593 4595 0
4591 4592 4595 0
4591 4593 4595 0
-4594 4595 0
4591 -4592 -4593 4594 -4596 0
-4591 -4592 -4593 -4594 -4596 0
-4591 4594 4596 0
4591 -4594 4596 0
4592 4596 0
4593 4596 0
83 -84 85 86 -4597 0
-83 84 85 -86 -4597 0
-83 -84 4597 0
-83 86 4597 0
83 84 4597 0
83 -86 4597 0
-85 4597 0
-83 84 85 -86 -4598 0
-83 -84 -85 -86 -4598 0
-84 85 4598 0
84 -85 4598 0
83 4598 0
86 4598 0
83 -84 85 86 -4599 0
-83 84 85 -86 -4599 0
-83 -84 4599 0
-83 86 4599 0
83 84 4599 0
83 -86 4599 0
-85 4599 0
-83 84 85 -86 -4600 0
-83 -84 -85 -86 -4600 0
-84 85 4600 0
84 -85 4600 0
83 4600 0
86 4600 0
87 -88 189 190 -4601 0
-87 88 189 -190 -4601 0
-87 -88 4601 0
-87 190 4601 0
87 88 4601 0
87 -190 4601 0
-189 4601 0
-87 88 189 -190 -4602 0
-87 -88 -189 -190 -4602 0
-88 189 4602 0
88 -189 4602 0
87 4602 0
190 4602 0
87 -88 187 188 -4603 0
-87 88 187 -188 -4603 0
-87 -88 4603 0
-87 188 4603 0
87 88 4603 0
87 -188 4603 0
-187 4603 0
-87 88 187 -188 -4604 0
-87 -88 -187 -188 -4604 0
-88 187 4604 0
88 -187 4604 0
87 4604 0
188 4604 0
87 -88 179 180 -4605 0
-87 88 179 -180 -4605 0
-87 -88 4605 0
-87 180 4605 0
87 88 4605 0
87 -180 4605 0
-179 4605 0
-87 88 179 -180 -4606 0
-87 -88 -179 -180 -4606 0
-88 179 4606 0
88 -179 4606 0
87 4606 0
180 4606 0
177 -178 181 182 -4607 0
-177 178 181 -182 -4607 0
-177 -178 4607 0
-177 182 4607 0
177 178 4607 0
177 -182 4607 0
-181 4607 0
-177 178 181 -182 -4608 0
-177 -178 -181 -182 -4608 0
-178 181 4608 0
178 -181 4608 0
177 4608 0
182 4608 0
177 -178 181 182 -4609 0
-177 178 181 -182 -4609 0
-177 -178 4609 0
-177 182 4609 0
177 178 4609 0
177 -182 4609 0
-181 4609 0
-177 178 181 -182 -4610 0
-177 -178 -181 -182 -4610 0
-178 181 4610 0
178 -181 4610 0
177 4610 0
182 4610 0
-5041 5042 5043 5044 -4611 0
5041 -5042 -5043 5044 -4611 0
-5041 -5042 4611 0
-5041 -5043 4611 0
5041 5042 4611 0
5041 5043 4611 0
-5044 4611 0
5041 -5042 -5043 5044 -4612 0
-5041 -5042 -5043 -5044 -4612 0
-5041 5044 4612 0
5041 -5044 4612 0
5042 4612 0
5043 4612 0
-5045 5046 5047 5048 -4613 0
5045 -5046 -5047 5048 -4613 0
-5045 -5046 4613 0
-5045 -5047 4613 0
5045 5046 4613 0
5045 5047 4613 0
-5048 4613 0
5045 -5046 -5047 5048 -4614 0
-5045 -5046 -5047 -5048 -4614 0
-5045 5048 4614 0
5045 -5048 4614 0
5046 4614 0
5047 4614 0
-4611 4612 4613 4614 -4615 0
4611 -4612 -4613 4614 -4615 0
-4611 -4612 4615 0
-4611 -4613 4615 0
4611 4612 4615 0
4611 4613 4615 0
-4614 4615 0
4611 -4612 -4613 4614 -4616 0
-4611 -4612 -4613 -4614 -4616 0
-4611 4614 4616 0
4611 -4614 4616 0
4612 4616 0
4613 4616 0
-4697 4698 4699 4700 -4617 0
4697 -4698 -4699 4700 -4617 0
-4697 -4698 4617 0
-4697 -4699 4617 0
4697 4698 4617 0
4697 4699 4617 0
-4700 4617 0
4697 -4698 -4699 4700 -4618 0
-4697 -4698 -4699 -4700 -4618 0
-4697 4700 4618 0
4697 -4700 4618 0
4698 4618 0
4699 4618 0
-4701 4702 4703 4704 -4619 0
4701 -4702 -4703 4704 -4619 0
-4701 -4702 4619 0
-4701 -4703 4619 0
4701 4702 4619 0
4701 4703 4619 0
-4704 4619 0
4701 -4702 -4703 4704 -4620 0
-4701 -4702 -4703 -4704 -4620 0
-4701 4704 4620 0
4701 -4704 4620 0
4702 4620 0
4703 4620 0
223 -224 225 226 -4621 0
-223 224 225 -226 -4621 0
-223 -224 4621 0
-223 226 4621 0
223 224 4621 0
223 -226 4621 0
-225 4621 0
-223 224 225 -226 -4622 0
-223 -224 -225 -226 -4622 0
-224 225 4622 0
224 -225 4622 0
223 4622 0
226 4622 0
-5051 5052 5065 5066 -4623 0
5051 -5052 -5065 5066 -4623 0
-5051 -5052 4623 0
-5051 -5065 4623 0
5051 5052 4623 0
5051 5065 4623 0
-5066 4623 0
5051 -5052 -5065 5066 -4624 0
-5051 -5052 -5065 -5066 -4624 0
-5051 5066 4624 0
5051 -5066 4624 0
5052 4624 0
5065 4624 0
-5067 5068 5075 5076 -4625 0
5067 -5068 -5075 5076 -4625 0
-5067 -5068 4625 0
-5067 -5075 4625 0
5067 5068 4625 0
5067 5075 4625 0
-5076 4625 0
5067 -5068 -5075 5076 -4626 0
-5067 -5068 -5075 -5076 -4626 0
-5067 5076 4626 0
5067 -5076 4626 0
5068 4626 0
5075 4626 0
-4623 4624 4625 4626 -4627 0
4623 -4624 -4625 4626 -4627 0
-4623 -4624 4627 0
-4623 -4625 4627 0
4623 4624 4627 0
4623 4625 4627 0
-4626 4627 0
4623 -4624 -4625 4626 -4628 0
-4623 -4624 -4625 -4626 -4628 0
-4623 4626 4628 0
4623 -4626 4628 0
4624 4628 0
4625 4628 0
67 -68 89 90 -4629 0
-67 68 89 -90 -4629 0
-67 -68 4629 0
-67 90 4629 0
67 68 4629 0
67 -90 4629 0
-89 4629 0
-67 68 89 -90 -4630 0
-67 -68 -89 -90 -4630 0
-68 89 4630 0
68 -89 4630 0
67 4630 0
90 4630 0
207 -208 4645 4646 -4631 0
-207 208 -4645 4646 -4631 0
-207 -208 4631 0
-207 4645 4631 0
207 208 4631 0
207 -4645 4631 0
-4646 4631 0
-207 208 -4645 4646 -4632 0
-207 -208 -4645 -4646 -4632 0
-208 4646 4632 0
208 -4646 4632 0
207 4632 0
4645 4632 0
-4149 4150 4631 4632 -4633 0
4149 -4150 -4631 4632 -4633 0
-4149 -4150 4633 0
-4149 -4631 4633 0
4149 4150 4633 0
4149 4631 4633 0
-4632 4633 0
4149 -4150 -4631 4632 -4634 0
-4149 -4150 -4631 -4632 -4634 0
-4149 4632 4634 0
4149 -4632 4634 0
4150 4634 0
4631 4634 0
207 -208 4627 4628 -4635 0
-207 208 -4627 4628 -4635 0
-207 -208 4635 0
-207 4627 4635 0
207 208 4635 0
207 -4627 4635 0
-4628 4635 0
-207 208 -4627 4628 -4636 0
-207 -208 -4627 -4628 -4636 0
-208 4628 4636 0
208 -4628 4636 0
207 4636 0
4627 4636 0
-4149 4150 4635 4636 -4637 0
4149 -4150 -4635 4636 -4637 0
-4149 -4150 4637 0
-4149 -4635 4637 0
4149 4150 4637 0
4149 4635 4637 0
-4636 4637 0
4149 -4150 -4635 4636 -4638 0
-4149 -4150 -4635 -4636 -4638 0
-4149 4636 4638 0
4149 -4636 4638 0
4150 4638 0
4635 4638 0
41 -42 89 90 -4639 0
-41 42 89 -90 -4639 0
-41 -42 4639 0
-41 90 4639 0
41 42 4639 0
41 -90 4639 0
-89 4639 0
-41 42 89 -90 -4640 0
-41 -42 -89 -90 -4640 0
-42 89 4640 0
42 -89 4640 0
41 4640 0
90 4640 0
223 -224 225 226 -4641 0
-223 224 225 -226 -4641 0
-223 -224 4641 0
-223 226 4641 0
223 224 4641 0
223 -226 4641 0
-225 4641 0
-223 224 225 -226 -4642 0
-223 -224 -225 -226 -4642 0
-224 225 4642 0
224 -225 4642 0
223 4642 0
226 4642 0
223 -224 225 226 -4643 0
-223 224 225 -226 -4643 0
-223 -224 4643 0
-223 226 4643 0
223 224 4643 0
223 -226 4643 0
-225 4643 0
-223 224 225 -226 -4644 0
-223 -224 -225 -226 -4644 0
-224 225 4644 0
224 -225 4644 0
223 4644 0
226 4644 0
-4641 4642 4643 4644 -4645 0
4641 -4642 -4643 4644 -4645 0
-4641 -4642 4645 0
-4641 -4643 4645 0
4641 4642 4645 0
4641 4643 4645 0
-4644 4645 0
4641 -4642 -4643 4644 -4646 0
-4641 -4642 -4643 -4644 -4646 0
-4641 4644 4646 0
4641 -4644 4646 0
4642 4646 0
4643 4646 0
207 -208 4627 4628 -4647 0
-207 208 -4627 4628 -4647 0
-207 -208 4647 0
-207 4627 4647 0
207 208 4647 0
207 -4627 4647 0
-4628 4647 0
-207 208 -4627 4628 -4648 0
-207 -208 -4627 -4628 -4648 0
-208 4628 4648 0
208 -4628 4648 0
207 4648 0
4627 4648 0
-5437 5438 5439 5440 -4649 0
5437 -5438 -5439 5440 -4649 0
-5437 -5438 4649 0
-5437 -5439 4649 0
5437 5438 4649 0
5437 5439 4649 0
-5440 4649 0
5437 -5438 -5439 5440 -4650 0
-5437 -5438 -5439 -5440 -4650 0
-5437 5440 4650 0
5437 -5440 4650 0
5438 4650 0
5439 4650 0
-5443 5444 5445 5446 -4651 0
5443 -5444 -5445 5446 -4651 0
-5443 -5444 4651 0
-5443 -5445 4651 0
5443 5444 4651 0
5443 5445 4651 0
-5446 4651 0
5443 -5444 -5445 5446 -4652 0
-5443 -5444 -5445 -5446 -4652 0
-5443 5446 4652 0
5443 -5446 4652 0
5444 4652 0
5445 4652 0
-4649 4650 4651 4652 -4653 0
4649 -4650 -4651 4652 -4653 0
-4649 -4650 4653 0
-4649 -4651 4653 0
4649 4650 4653 0
4649 4651 4653 0
-4652 4653 0
4649 -4650 -4651 4652 -4654 0
-4649 -4650 -4651 -4652 -4654 0
-4649 4652 4654 0
4649 -4652 4654 0
4650 4654 0
4651 4654 0
-5449 5450 5451 5452 -4655 0
5449 -5450 -5451 5452 -4655 0
-5449 -5450 4655 0
-5449 -5451 4655 0
5449 5450 4655 0
5449 5451 4655 0
-5452 4655 0
5449 -5450 -5451 5452 -4656 0
-5449 -5450 -5451 -5452 -4656 0
-5449 5452 4656 0
5449 -5452 4656 0
5450 4656 0
5451 4656 0
-5455 5456 5457 5458 -4657 0
5455 -5456 -5457 5458 -4657 0
-5455 -5456 4657 0
-5455 -5457 4657 0
5455 5456 4657 0
5455 5457 4657 0
-5458 4657 0
5455 -5456 -5457 5458 -4658 0
-5455 -5456 -5457 -5458 -4658 0
-5455 5458 4658 0
5455 -5458 4658 0
5456 4658 0
5457 4658 0
-4655 4656 4657 4658 -4659 0
4655 -4656 -4657 4658 -4659 0
-4655 -4656 4659 0
-4655 -4657 4659 0
4655 4656 4659 0
4655 4657 4659 0
-4658 4659 0
4655 -4656 -4657 4658 -4660 0
-4655 -4656 -4657 -4658 -4660 0
-4655 4658 4660 0
4655 -4658 4660 0
4656 4660 0
4657 4660 0
209 -210 5471 5472 -4661 0
-209 210 -5471 5472 -4661 0
-209 -210 4661 0
-209 5471 4661 0
209 210 4661 0
209 -5471 4661 0
-5472 4661 0
-209 210 -5471 5472 -4662 0
-209 -210 -5471 -5472 -4662 0
-210 5472 4662 0
210 -5472 4662 0
209 4662 0
5471 4662 0
-4217 4218 4627 4628 -4663 0
4217 -4218 -4627 4628 -4663 0
-4217 -4218 4663 0
-4217 -4627 4663 0
4217 4218 4663 0
4217 4627 4663 0
-4628 4663 0
4217 -4218 -4627 4628 -4664 0
-4217 -4218 -4627 -4628 -4664 0
-4217 4628 4664 0
4217 -4628 4664 0
4218 4664 0
4627 4664 0
-4661 4662 4663 4664 -4665 0
4661 -4662 -4663 4664 -4665 0
-4661 -4662 4665 0
-4661 -4663 4665 0
4661 4662 4665 0
4661 4663 4665 0
-4664 4665 0
4661 -4662 -4663 4664 -4666 0
-4661 -4662 -4663 -4664 -4666 0
-4661 4664 4666 0
4661 -4664 4666 0
4662 4666 0
4663 4666 0
-5461 5462 5463 5464 -4667 0
5461 -5462 -5463 5464 -4667 0
-5461 -5462 4667 0
-5461 -5463 4667 0
5461 5462 4667 0
5461 5463 4667 0
-5464 4667 0
5461 -5462 -5463 5464 -4668 0
-5461 -5462 -5463 -5464 -4668 0
-5461 5464 4668 0
5461 -5464 4668 0
5462 4668 0
5463 4668 0
-5467 5468 5469 5470 -4669 0
5467 -5468 -5469 5470 -4669 0
-5467 -5468 4669 0
-5467 -5469 4669 0
5467 5468 4669 0
5467 5469 4669 0
-5470 4669 0
5467 -5468 -5469 5470 -4670 0
-5467 -5468 -5469 -5470 -4670 0
-5467 5470 4670 0
5467 -5470 4670 0
5468 4670 0
5469 4670 0
-4667 4668 4669 4670 -4671 0
4667 -4668 -4669 4670 -4671 0
-4667 -4668 4671 0
-4667 -4669 4671 0
4667 4668 4671 0
4667 4669 4671 0
-4670 4671 0
4667 -4668 -4669 4670 -4672 0
-4667 -4668 -4669 -4670 -4672 0
-4667 4670 4672 0
4667 -4670 4672 0
4668 4672 0
4669 4672 0
207 -208 209 210 -4673 0
-207 208 209 -210 -4673 0
-207 -208 4673 0
-207 210 4673 0
207 208 4673 0
207 -210 4673 0
-209 4673 0
-207 208 209 -210 -4674 0
-207 -208 -209 -210 -4674 0
-208 209 4674 0
208 -209 4674 0
207 4674 0
210 4674 0
-4627 4628 4149 4150 -4675 0
4627 -4628 -4149 4150 -4675 0
-4627 -4628 4675 0
-4627 -4149 4675 0
4627 4628 4675 0
4627 4149 4675 0
-4150 4675 0
4627 -4628 -4149 4150 -4676 0
-4627 -4628 -4149 -4150 -4676 0
-4627 4150 4676 0
4627 -4150 4676 0
4628 4676 0
4149 4676 0
-4673 4674 4675 4676 -4677 0
4673 -4674 -4675 4676 -4677 0
-4673 -4674 4677 0
-4673 -4675 4677 0
4673 4674 4677 0
4673 4675 4677 0
-4676 4677 0
4673 -4674 -4675 4676 -4678 0
-4673 -4674 -4675 -4676 -4678 0
-4673 4676 4678 0
4673 -4676 4678 0
4674 4678 0
4675 4678 0
-5475 5476 5477 5478 -4679 0
5475 -5476 -5477 5478 -4679 0
-5475 -5476 4679 0
-5475 -5477 4679 0
5475 5476 4679 0
5475 5477 4679 0
-5478 4679 0
5475 -5476 -5477 5478 -4680 0
-5475 -5476 -5477 -5478 -4680 0
-5475 5478 4680 0
5475 -5478 4680 0
5476 4680 0
5477 4680 0
-5479 5480 5481 5482 -4681 0
5479 -5480 -5481 5482 -4681 0
-5479 -5480 4681 0
-5479 -5481 4681 0
5479 5480 4681 0
5479 5481 4681 0
-5482 4681 0
5479 -5480 -5481 5482 -4682 0
-5479 -5480 -5481 -5482 -4682 0
-5479 5482 4682 0
5479 -5482 4682 0
5480 4682 0
5481 4682 0
-4679 4680 4681 4682 -4683 0
4679 -4680 -4681 4682 -4683 0
-4679 -4680 4683 0
-4679 -4681 4683 0
4679 4680 4683 0
4679 4681 4683 0
-4682 4683 0
4679 -4680 -4681 4682 -4684 0
-4679 -4680 -4681 -4682 -4684 0
-4679 4682 4684 0
4679 -4682 4684 0
4680 4684 0
4681 4684 0
-4627 4628 4645 4646 -4685 0
4627 -4628 -4645 4646 -4685 0
-4627 -4628 4685 0
-4627 -4645 4685 0
4627 4628 4685 0
4627 4645 4685 0
-4646 4685 0
4627 -4628 -4645 4646 -4686 0
-4627 -4628 -4645 -4646 -4686 0
-4627 4646 4686 0
4627 -4646 4686 0
4628 4686 0
4645 4686 0
-5483 5484 5485 5486 -4687 0
5483 -5484 -5485 5486 -4687 0
-5483 -5484 4687 0
-5483 -5485 4687 0
5483 5484 4687 0
5483 5485 4687 0
-5486 4687 0
5483 -5484 -5485 5486 -4688 0
-5483 -5484 -5485 -5486 -4688 0
-5483 5486 4688 0
5483 -5486 4688 0
5484 4688 0
5485 4688 0
-5487 5488 5489 5490 -4689 0
5487 -5488 -5489 5490 -4689 0
-5487 -5488 4689 0
-5487 -5489 4689 0
5487 5488 4689 0
5487 5489 4689 0
-5490 4689 0
5487 -5488 -5489 5490 -4690 0
-5487 -5488 -5489 -5490 -4690 0
-5487 5490 4690 0
5487 -5490 4690 0
5488 4690 0
5489 4690 0
-4687 4688 4689 4690 -4691 0
4687 -4688 -4689 4690 -4691 0
-4687 -4688 4691 0
-4687 -4689 4691 0
4687 4688 4691 0
4687 4689 4691 0
-4690 4691 0
4687 -4688 -4689 4690 -4692 0
-4687 -4688 -4689 -4690 -4692 0
-4687 4690 4692 0
4687 -4690 4692 0
4688 4692 0
4689 4692 0
81 -82 213 214 -4693 0
-81 82 213 -214 -4693 0
-81 -82 4693 0
-81 214 4693 0
81 82 4693 0
81 -214 4693 0
-213 4693 0
-81 82 213 -214 -4694 0
-81 -82 -213 -214 -4694 0
-82 213 4694 0
82 -213 4694 0
81 4694 0
214 4694 0
81 -82 211 212 -4695 0
-81 82 211 -212 -4695 0
-81 -82 4695 0
-81 212 4695 0
81 82 4695 0
81 -212 4695 0
-211 4695 0
-81 82 211 -212 -4696 0
-81 -82 -211 -212 -4696 0
-82 211 4696 0
82 -211 4696 0
81 4696 0
212 4696 0
-5081 5082 5087 5088 -4697 0
5081 -5082 -5087 5088 -4697 0
-5081 -5082 4697 0
-5081 -5087 4697 0
5081 5082 4697 0
5081 5087 4697 0
-5088 4697 0
5081 -5082 -5087 5088 -4698 0
-5081 -5082 -5087 -5088 -4698 0
-5081 5088 4698 0
5081 -5088 4698 0
5082 4698 0
5087 4698 0
-5093 5094 5099 5100 -4699 0
5093 -5094 -5099 5100 -4699 0
-5093 -5094 4699 0
-5093 -5099 4699 0
5093 5094 4699 0
5093 5099 4699 0
-5100 4699 0
5093 -5094 -5099 5100 -4700 0
-5093 -5094 -5099 -5100 -4700 0
-5093 5100 4700 0
5093 -5100 4700 0
5094 4700 0
5099 4700 0
-5105 5106 5111 5112 -4701 0
5105 -5106 -5111 5112 -4701 0
-5105 -5106 4701 0
-5105 -5111 4701 0
5105 5106 4701 0
5105 5111 4701 0
-5112 4701 0
5105 -5106 -5111 5112 -4702 0
-5105 -5106 -5111 -5112 -4702 0
-5105 5112 4702 0
5105 -5112 4702 0
5106 4702 0
5111 4702 0
-5117 5118 5123 5124 -4703 0
5117 -5118 -5123 5124 -4703 0
-5117 -5118 4703 0
-5117 -5123 4703 0
5117 5118 4703 0
5117 5123 4703 0
-5124 4703 0
5117 -5118 -5123 5124 -4704 0
-5117 -5118 -5123 -5124 -4704 0
-5117 5124 4704 0
5117 -5124 4704 0
5118 4704 0
5123 4704 0
213 -214 4217 4218 -4705 0
-213 214 -4217 4218 -4705 0
-213 -214 4705 0
-213 4217 4705 0
213 214 4705 0
213 -4217 4705 0
-4218 4705 0
-213 214 -4217 4218 -4706 0
-213 -214 -4217 -4218 -4706 0
-214 4218 4706 0
214 -4218 4706 0
213 4706 0
4217 4706 0
-4149 4150 4145 4146 -4707 0
4149 -4150 -4145 4146 -4707 0
-4149 -4150 4707 0
-4149 -4145 4707 0
4149 4150 4707 0
4149 4145 4707 0
-4146 4707 0
4149 -4150 -4145 4146 -4708 0
-4149 -4150 -4145 -4146 -4708 0
-4149 4146 4708 0
4149 -4146 4708 0
4150 4708 0
4145 4708 0
211 -212 213 214 -4709 0
-211 212 213 -214 -4709 0
-211 -212 4709 0
-211 214 4709 0
211 212 4709 0
211 -214 4709 0
-213 4709 0
-211 212 213 -214 -4710 0
-211 -212 -213 -214 -4710 0
-212 213 4710 0
212 -213 4710 0
211 4710 0
214 4710 0
-4149 4150 4145 4146 -4711 0
4149 -4150 -4145 4146 -4711 0
-4149 -4150 4711 0
-4149 -4145 4711 0
4149 4150 4711 0
4149 4145 4711 0
-4146 4711 0
4149 -4150 -4145 4146 -4712 0
-4149 -4150 -4145 -4146 -4712 0
-4149 4146 4712 0
4149 -4146 4712 0
4150 4712 0
4145 4712 0
101 -102 5125 5126 -4713 0
-101 102 -5125 5126 -4713 0
-101 -102 4713 0
-101 5125 4713 0
101 102 4713 0
101 -5125 4713 0
-5126 4713 0
-101 102 -5125 5126 -4714 0
-101 -102 -5125 -5126 -4714 0
-102 5126 4714 0
102 -5126 4714 0
101 4714 0
5125 4714 0
103 -104 145 146 -4715 0
-103 104 145 -146 -4715 0
-103 -104 4715 0
-103 146 4715 0
103 104 4715 0
103 -146 4715 0
-145 4715 0
-103 104 145 -146 -4716 0
-103 -104 -145 -146 -4716 0
-104 145 4716 0
104 -145 4716 0
103 4716 0
146 4716 0
101 -102 5127 5128 -4717 0
-101 102 -5127 5128 -4717 0
-101 -102 4717 0
-101 5127 4717 0
101 102 4717 0
101 -5127 4717 0
-5128 4717 0
-101 102 -5127 5128 -4718 0
-101 -102 -5127 -5128 -4718 0
-102 5128 4718 0
102 -5128 4718 0
101 4718 0
5127 4718 0
103 -104 145 146 -4719 0
-103 104 145 -146 -4719 0
-103 -104 4719 0
-103 146 4719 0
103 104 4719 0
103 -146 4719 0
-145 4719 0
-103 104 145 -146 -4720 0
-103 -104 -145 -146 -4720 0
-104 145 4720 0
104 -145 4720 0
103 4720 0
146 4720 0
101 -102 5129 5130 -4721 0
-101 102 -5129 5130 -4721 0
-101 -102 4721 0
-101 5129 4721 0
101 102 4721 0
101 -5129 4721 0
-5130 4721 0
-101 102 -5129 5130 -4722 0
-101 -102 -5129 -5130 -4722 0
-102 5130 4722 0
102 -5130 4722 0
101 4722 0
5129 4722 0
103 -104 145 146 -4723 0
-103 104 145 -146 -4723 0
-103 -104 4723 0
-103 146 4723 0
103 104 4723 0
103 -146 4723 0
-145 4723 0
-103 104 145 -146 -4724 0
-103 -104 -145 -146 -4724 0
-104 145 4724 0
104 -145 4724 0
103 4724 0
146 4724 0
101 -102 5131 5132 -4725 0
-101 102 -5131 5132 -4725 0
-101 -102 4725 0
-101 5131 4725 0
101 102 4725 0
101 -5131 4725 0
-5132 4725 0
-101 102 -5131 5132 -4726 0
-101 -102 -5131 -5132 -4726 0
-102 5132 4726 0
102 -5132 4726 0
101 4726 0
5131 4726 0
103 -104 145 146 -4727 0
-103 104 145 -146 -4727 0
-103 -104 4727 0
-103 146 4727 0
103 104 4727 0
103 -146 4727 0
-145 4727 0
-103 104 145 -146 -4728 0
-103 -104 -145 -146 -4728 0
-104 145 4728 0
104 -145 4728 0
103 4728 0
146 4728 0
133 -134 257 258 -4729 0
-133 134 257 -258 -4729 0
-133 -134 4729 0
-133 258 4729 0
133 134 4729 0
133 -258 4729 0
-257 4729 0
-133 134 257 -258 -4730 0
-133 -134 -257 -258 -4730 0
-134 257 4730 0
134 -257 4730 0
133 4730 0
258 4730 0
-4739 4740 4741 4742 -4731 0
4739 -4740 -4741 4742 -4731 0
-4739 -4740 4731 0
-4739 -4741 4731 0
4739 4740 4731 0
4739 4741 4731 0
-4742 4731 0
4739 -4740 -4741 4742 -4732 0
-4739 -4740 -4741 -4742 -4732 0
-4739 4742 4732 0
4739 -4742 4732 0
4740 4732 0
4741 4732 0
-3945 3946 4731 4732 -4733 0
3945 -3946 -4731 4732 -4733 0
-3945 -3946 4733 0
-3945 -4731 4733 0
3945 3946 4733 0
3945 4731 4733 0
-4732 4733 0
3945 -3946 -4731 4732 -4734 0
-3945 -3946 -4731 -4732 -4734 0
-3945 4732 4734 0
3945 -4732 4734 0
3946 4734 0
4731 4734 0
133 -134 141 142 -4735 0
-133 134 141 -142 -4735 0
-133 -134 4735 0
-133 142 4735 0
133 134 4735 0
133 -142 4735 0
-141 4735 0
-133 134 141 -142 -4736 0
-133 -134 -141 -142 -4736 0
-134 141 4736 0
134 -141 4736 0
133 4736 0
142 4736 0
257 -258 4731 4732 -4737 0
-257 258 -4731 4732 -4737 0
-257 -258 4737 0
-257 4731 4737 0
257 258 4737 0
257 -4731 4737 0
-4732 4737 0
-257 258 -4731 4732 -4738 0
-257 -258 -4731 -4732 -4738 0
-258 4732 4738 0
258 -4732 4738 0
257 4738 0
4731 4738 0
33 -34 179 180 -4739 0
-33 34 179 -180 -4739 0
-33 -34 4739 0
-33 180 4739 0
33 34 4739 0
33 -180 4739 0
-179 4739 0
-33 34 179 -180 -4740 0
-33 -34 -179 -180 -4740 0
-34 179 4740 0
34 -179 4740 0
33 4740 0
180 4740 0
187 -188 189 190 -4741 0
-187 188 189 -190 -4741 0
-187 -188 4741 0
-187 190 4741 0
187 188 4741 0
187 -190 4741 0
-189 4741 0
-187 188 189 -190 -4742 0
-187 -188 -189 -190 -4742 0
-188 189 4742 0
188 -189 4742 0
187 4742 0
190 4742 0
129 -130 3945 3946 -4743 0
-129 130 -3945 3946 -4743 0
-129 -130 4743 0
-129 3945 4743 0
129 130 4743 0
129 -3945 4743 0
-3946 4743 0
-129 130 -3945 3946 -4744 0
-129 -130 -3945 -3946 -4744 0
-130 3946 4744 0
130 -3946 4744 0
129 4744 0
3945 4744 0
129 -130 141 142 -4745 0
-129 130 141 -142 -4745 0
-129 -130 4745 0
-129 142 4745 0
129 130 4745 0
129 -142 4745 0
-141 4745 0
-129 130 141 -142 -4746 0
-129 -130 -141 -142 -4746 0
-130 141 4746 0
130 -141 4746 0
129 4746 0
142 4746 0
133 -134 189 190 -4747 0
-133 134 189 -190 -4747 0
-133 -134 4747 0
-133 190 4747 0
133 134 4747 0
133 -190 4747 0
-189 4747 0
-133 134 189 -190 -4748 0
-133 -134 -189 -190 -4748 0
-134 189 4748 0
134 -189 4748 0
133 4748 0
190 4748 0
257 -258 4731 4732 -4749 0
-257 258 -4731 4732 -4749 0
-257 -258 4749 0
-257 4731 4749 0
257 258 4749 0
257 -4731 4749 0
-4732 4749 0
-257 258 -4731 4732 -4750 0
-257 -258 -4731 -4732 -4750 0
-258 4732 4750 0
258 -4732 4750 0
257 4750 0
4731 4750 0
-4747 4748 4749 4750 -4751 0
4747 -4748 -4749 4750 -4751 0
-4747 -4748 4751 0
-4747 -4749 4751 0
4747 4748 4751 0
4747 4749 4751 0
-4750 4751 0
4747 -4748 -4749 4750 -4752 0
-4747 -4748 -4749 -4750 -4752 0
-4747 4750 4752 0
4747 -4750 4752 0
4748 4752 0
4749 4752 0
-5405 5406 5407 5408 -4753 0
5405 -5406 -5407 5408 -4753 0
-5405 -5406 4753 0
-5405 -5407 4753 0
5405 5406 4753 0
5405 5407 4753 0
-5408 4753 0
5405 -5406 -5407 5408 -4754 0
-5405 -5406 -5407 -5408 -4754 0
-5405 5408 4754 0
5405 -5408 4754 0
5406 4754 0
5407 4754 0
-5411 5412 5413 5414 -4755 0
5411 -5412 -5413 5414 -4755 0
-5411 -5412 4755 0
-5411 -5413 4755 0
5411 5412 4755 0
5411 5413 4755 0
-5414 4755 0
5411 -5412 -5413 5414 -4756 0
-5411 -5412 -5413 -5414 -4756 0
-5411 5414 4756 0
5411 -5414 4756 0
5412 4756 0
5413 4756 0
-4753 4754 4755 4756 -4757 0
4753 -4754 -4755 4756 -4757 0
-4753 -4754 4757 0
-4753 -4755 4757 0
4753 4754 4757 0
4753 4755 4757 0
-4756 4757 0
4753 -4754 -4755 4756 -4758 0
-4753 -4754 -4755 -4756 -4758 0
-4753 4756 4758 0
4753 -4756 4758 0
4754 4758 0
4755 4758 0
33 -34 133 134 -4759 0
-33 34 133 -134 -4759 0
-33 -34 4759 0
-33 134 4759 0
33 34 4759 0
33 -134 4759 0
-133 4759 0
-33 34 133 -134 -4760 0
-33 -34 -133 -134 -4760 0
-34 133 4760 0
34 -133 4760 0
33 4760 0
134 4760 0
257 -258 4731 4732 -4761 0
-257 258 -4731 4732 -4761 0
-257 -258 4761 0
-257 4731 4761 0
257 258 4761 0
257 -4731 4761 0
-4732 4761 0
-257 258 -4731 4732 -4762 0
-257 -258 -4731 -4732 -4762 0
-258 4732 4762 0
258 -4732 4762 0
257 4762 0
4731 4762 0
-4759 4760 4761 4762 -4763 0
4759 -4760 -4761 4762 -4763 0
-4759 -4760 4763 0
-4759 -4761 4763 0
4759 4760 4763 0
4759 4761 4763 0
-4762 4763 0
4759 -4760 -4761 4762 -4764 0
-4759 -4760 -4761 -4762 -4764 0
-4759 4762 4764 0
4759 -4762 4764 0
4760 4764 0
4761 4764 0
-5415 5416 5417 5418 -4765 0
5415 -5416 -5417 5418 -4765 0
-5415 -5416 4765 0
-5415 -5417 4765 0
5415 5416 4765 0
5415 5417 4765 0
-5418 4765 0
5415 -5416 -5417 5418 -4766 0
-5415 -5416 -5417 -5418 -4766 0
-5415 5418 4766 0
5415 -5418 4766 0
5416 4766 0
5417 4766 0
-5419 5420 5421 5422 -4767 0
5419 -5420 -5421 5422 -4767 0
-5419 -5420 4767 0
-5419 -5421 4767 0
5419 5420 4767 0
5419 5421 4767 0
-5422 4767 0
5419 -5420 -5421 5422 -4768 0
-5419 -5420 -5421 -5422 -4768 0
-5419 5422 4768 0
5419 -5422 4768 0
5420 4768 0
5421 4768 0
-4765 4766 4767 4768 -4769 0
4765 -4766 -4767 4768 -4769 0
-4765 -4766 4769 0
-4765 -4767 4769 0
4765 4766 4769 0
4765 4767 4769 0
-4768 4769 0
4765 -4766 -4767 4768 -4770 0
-4765 -4766 -4767 -4768 -4770 0
-4765 4768 4770 0
4765 -4768 4770 0
4766 4770 0
4767 4770 0
121 -122 189 190 -4771 0
-121 122 189 -190 -4771 0
-121 -122 4771 0
-121 190 4771 0
121 122 4771 0
121 -190 4771 0
-189 4771 0
-121 122 189 -190 -4772 0
-121 -122 -189 -190 -4772 0
-122 189 4772 0
122 -189 4772 0
121 4772 0
190 4772 0
-4731 4732 4771 4772 -4773 0
4731 -4732 -4771 4772 -4773 0
-4731 -4732 4773 0
-4731 -4771 4773 0
4731 4732 4773 0
4731 4771 4773 0
-4772 4773 0
4731 -4732 -4771 4772 -4774 0
-4731 -4732 -4771 -4772 -4774 0
-4731 4772 4774 0
4731 -4772 4774 0
4732 4774 0
4771 4774 0
-5423 5424 5425 5426 -4775 0
5423 -5424 -5425 5426 -4775 0
-5423 -5424 4775 0
-5423 -5425 4775 0
5423 5424 4775 0
5423 5425 4775 0
-5426 4775 0
5423 -5424 -5425 5426 -4776 0
-5423 -5424 -5425 -5426 -4776 0
-5423 5426 4776 0
5423 -5426 4776 0
5424 4776 0
5425 4776 0
-5427 5428 5429 5430 -4777 0
5427 -5428 -5429 5430 -4777 0
-5427 -5428 4777 0
-5427 -5429 4777 0
5427 5428 4777 0
5427 5429 4777 0
-5430 4777 0
5427 -5428 -5429 5430 -4778 0
-5427 -5428 -5429 -5430 -4778 0
-5427 5430 4778 0
5427 -5430 4778 0
5428 4778 0
5429 4778 0
-4775 4776 4777 4778 -4779 0
4775 -4776 -4777 4778 -4779 0
-4775 -4776 4779 0
-4775 -4777 4779 0
4775 4776 4779 0
4775 4777 4779 0
-4778 4779 0
4775 -4776 -4777 4778 -4780 0
-4775 -4776 -4777 -4778 -4780 0
-4775 4778 4780 0
4775 -4778 4780 0
4776 4780 0
4777 4780 0
33 -34 121 122 -4781 0
-33 34 121 -122 -4781 0
-33 -34 4781 0
-33 122 4781 0
33 34 4781 0
33 -122 4781 0
-121 4781 0
-33 34 121 -122 -4782 0
-33 -34 -121 -122 -4782 0
-34 121 4782 0
34 -121 4782 0
33 4782 0
122 4782 0
-4731 4732 4781 4782 -4783 0
4731 -4732 -4781 4782 -4783 0
-4731 -4732 4783 0
-4731 -4781 4783 0
4731 4732 4783 0
4731 4781 4783 0
-4782 4783 0
4731 -4732 -4781 4782 -4784 0
-4731 -4732 -4781 -4782 -4784 0
-4731 4782 4784 0
4731 -4782 4784 0
4732 4784 0
4781 4784 0
-4731 4732 5431 5432 -4785 0
4731 -4732 -5431 5432 -4785 0
-4731 -4732 4785 0
-4731 -5431 4785 0
4731 4732 4785 0
4731 5431 4785 0
-5432 4785 0
4731 -4732 -5431 5432 -4786 0
-4731 -4732 -5431 -5432 -4786 0
-4731 5432 4786 0
4731 -5432 4786 0
4732 4786 0
5431 4786 0
-4731 4732 5433 5434 -4787 0
4731 -4732 -5433 5434 -4787 0
-4731 -4732 4787 0
-4731 -5433 4787 0
4731 4732 4787 0
4731 5433 4787 0
-5434 4787 0
4731 -4732 -5433 5434 -4788 0
-4731 -4732 -5433 -5434 -4788 0
-4731 5434 4788 0
4731 -5434 4788 0
4732 4788 0
5433 4788 0
-4785 4786 4787 4788 -4789 0
4785 -4786 -4787 4788 -4789 0
-4785 -4786 4789 0
-4785 -4787 4789 0
4785 4786 4789 0
4785 4787 4789 0
-4788 4789 0
4785 -4786 -4787 4788 -4790 0
-4785 -4786 -4787 -4788 -4790 0
-4785 4788 4790 0
4785 -4788 4790 0
4786 4790 0
4787 4790 0
187 -188 3859 3860 -4791 0
-187 188 -3859 3860 -4791 0
-187 -188 4791 0
-187 3859 4791 0
187 188 4791 0
187 -3859 4791 0
-3860 4791 0
-187 188 -3859 3860 -4792 0
-187 -188 -3859 -3860 -4792 0
-188 3860 4792 0
188 -3860 4792 0
187 4792 0
3859 4792 0
-5133 5134 5135 5136 -4793 0
5133 -5134 -5135 5136 -4793 0
-5133 -5134 4793 0
-5133 -5135 4793 0
5133 5134 4793 0
5133 5135 4793 0
-5136 4793 0
5133 -5134 -5135 5136 -4794 0
-5133 -5134 -5135 -5136 -4794 0
-5133 5136 4794 0
5133 -5136 4794 0
5134 4794 0
5135 4794 0
189 -190 3859 3860 -4795 0
-189 190 -3859 3860 -4795 0
-189 -190 4795 0
-189 3859 4795 0
189 190 4795 0
189 -3859 4795 0
-3860 4795 0
-189 190 -3859 3860 -4796 0
-189 -190 -3859 -3860 -4796 0
-190 3860 4796 0
190 -3860 4796 0
189 4796 0
3859 4796 0
-4793 4794 4795 4796 -4797 0
4793 -4794 -4795 4796 -4797 0
-4793 -4794 4797 0
-4793 -4795 4797 0
4793 4794 4797 0
4793 4795 4797 0
-4796 4797 0
4793 -4794 -4795 4796 -4798 0
-4793 -4794 -4795 -4796 -4798 0
-4793 4796 4798 0
4793 -4796 4798 0
4794 4798 0
4795 4798 0
125 -126 127 128 -4799 0
-125 126 127 -128 -4799 0
-125 -126 4799 0
-125 128 4799 0
125 126 4799 0
125 -128 4799 0
-127 4799 0
-125 126 127 -128 -4800 0
-125 -126 -127 -128 -4800 0
-126 127 4800 0
126 -127 4800 0
125 4800 0
128 4800 0
125 -126 127 128 -4801 0
-125 126 127 -128 -4801 0
-125 -126 4801 0
-125 128 4801 0
125 126 4801 0
125 -128 4801 0
-127 4801 0
-125 126 127 -128 -4802 0
-125 -126 -127 -128 -4802 0
-126 127 4802 0
126 -127 4802 0
125 4802 0
128 4802 0
147 -148 159 160 -4803 0
-147 148 159 -160 -4803 0
-147 -148 4803 0
-147 160 4803 0
147 148 4803 0
147 -160 4803 0
-159 4803 0
-147 148 159 -160 -4804 0
-147 -148 -159 -160 -4804 0
-148 159 4804 0
148 -159 4804 0
147 4804 0
160 4804 0
-4975 4976 4977 4978 -4805 0
4975 -4976 -4977 4978 -4805 0
-4975 -4976 4805 0
-4975 -4977 4805 0
4975 4976 4805 0
4975 4977 4805 0
-4978 4805 0
4975 -4976 -4977 4978 -4806 0
-4975 -4976 -4977 -4978 -4806 0
-4975 4978 4806 0
4975 -4978 4806 0
4976 4806 0
4977 4806 0
-4983 4984 4985 4986 -4807 0
4983 -4984 -4985 4986 -4807 0
-4983 -4984 4807 0
-4983 -4985 4807 0
4983 4984 4807 0
4983 4985 4807 0
-4986 4807 0
4983 -4984 -4985 4986 -4808 0
-4983 -4984 -4985 -4986 -4808 0
-4983 4986 4808 0
4983 -4986 4808 0
4984 4808 0
4985 4808 0
-5221 5222 5227 5228 -4809 0
5221 -5222 -5227 5228 -4809 0
-5221 -5222 4809 0
-5221 -5227 4809 0
5221 5222 4809 0
5221 5227 4809 0
-5228 4809 0
5221 -5222 -5227 5228 -4810 0
-5221 -5222 -5227 -5228 -4810 0
-5221 5228 4810 0
5221 -5228 4810 0
5222 4810 0
5227 4810 0
-5201 5202 5215 5216 -4811 0
5201 -5202 -5215 5216 -4811 0
-5201 -5202 4811 0
-5201 -5215 4811 0
5201 5202 4811 0
5201 5215 4811 0
-5216 4811 0
5201 -5202 -5215 5216 -4812 0
-5201 -5202 -5215 -5216 -4812 0
-5201 5216 4812 0
5201 -5216 4812 0
5202 4812 0
5215 4812 0
-4809 4810 4811 4812 -4813 0
4809 -4810 -4811 4812 -4813 0
-4809 -4810 4813 0
-4809 -4811 4813 0
4809 4810 4813 0
4809 4811 4813 0
-4812 4813 0
4809 -4810 -4811 4812 -4814 0
-4809 -4810 -4811 -4812 -4814 0
-4809 4812 4814 0
4809 -4812 4814 0
4810 4814 0
4811 4814 0
-5259 5260 5263 5264 -4815 0
5259 -5260 -5263 5264 -4815 0
-5259 -5260 4815 0
-5259 -5263 4815 0
5259 5260 4815 0
5259 5263 4815 0
-5264 4815 0
5259 -5260 -5263 5264 -4816 0
-5259 -5260 -5263 -5264 -4816 0
-5259 5264 4816 0
5259 -5264 4816 0
5260 4816 0
5263 4816 0
-5241 5242 5253 5254 -4817 0
5241 -5242 -5253 5254 -4817 0
-5241 -5242 4817 0
-5241 -5253 4817 0
5241 5242 4817 0
5241 5253 4817 0
-5254 4817 0
5241 -5242 -5253 5254 -4818 0
-5241 -5242 -5253 -5254 -4818 0
-5241 5254 4818 0
5241 -5254 4818 0
5242 4818 0
5253 4818 0
-4815 4816 4817 4818 -4819 0
4815 -4816 -4817 4818 -4819 0
-4815 -4816 4819 0
-4815 -4817 4819 0
4815 4816 4819 0
4815 4817 4819 0
-4818 4819 0
4815 -4816 -4817 4818 -4820 0
-4815 -4816 -4817 -4818 -4820 0
-4815 4818 4820 0
4815 -4818 4820 0
4816 4820 0
4817 4820 0
-5293 5294 5297 5298 -4821 0
5293 -5294 -5297 5298 -4821 0
-5293 -5294 4821 0
-5293 -5297 4821 0
5293 5294 4821 0
5293 5297 4821 0
-5298 4821 0
5293 -5294 -5297 5298 -4822 0
-5293 -5294 -5297 -5298 -4822 0
-5293 5298 4822 0
5293 -5298 4822 0
5294 4822 0
5297 4822 0
-5275 5276 5287 5288 -4823 0
5275 -5276 -5287 5288 -4823 0
-5275 -5276 4823 0
-5275 -5287 4823 0
5275 5276 4823 0
5275 5287 4823 0
-5288 4823 0
5275 -5276 -5287 5288 -4824 0
-5275 -5276 -5287 -5288 -4824 0
-5275 5288 4824 0
5275 -5288 4824 0
5276 4824 0
5287 4824 0
-4821 4822 4823 4824 -4825 0
4821 -4822 -4823 4824 -4825 0
-4821 -4822 4825 0
-4821 -4823 4825 0
4821 4822 4825 0
4821 4823 4825 0
-4824 4825 0
4821 -4822 -4823 4824 -4826 0
-4821 -4822 -4823 -4824 -4826 0
-4821 4824 4826 0
4821 -4824 4826 0
4822 4826 0
4823 4826 0
-5323 5324 5327 5328 -4827 0
5323 -5324 -5327 5328 -4827 0
-5323 -5324 4827 0
-5323 -5327 4827 0
5323 5324 4827 0
5323 5327 4827 0
-5328 4827 0
5323 -5324 -5327 5328 -4828 0
-5323 -5324 -5327 -5328 -4828 0
-5323 5328 4828 0
5323 -5328 4828 0
5324 4828 0
5327 4828 0
-5309 5310 5319 5320 -4829 0
5309 -5310 -5319 5320 -4829 0
-5309 -5310 4829 0
-5309 -5319 4829 0
5309 5310 4829 0
5309 5319 4829 0
-5320 4829 0
5309 -5310 -5319 5320 -4830 0
-5309 -5310 -5319 -5320 -4830 0
-5309 5320 4830 0
5309 -5320 4830 0
5310 4830 0
5319 4830 0
-4827 4828 4829 4830 -4831 0
4827 -4828 -4829 4830 -4831 0
-4827 -4828 4831 0
-4827 -4829 4831 0
4827 4828 4831 0
4827 4829 4831 0
-4830 4831 0
4827 -4828 -4829 4830 -4832 0
-4827 -4828 -4829 -4830 -4832 0
-4827 4830 4832 0
4827 -4830 4832 0
4828 4832 0
4829 4832 0
-5351 5352 5355 5356 -4833 0
5351 -5352 -5355 5356 -4833 0
-5351 -5352 4833 0
-5351 -5355 4833 0
5351 5352 4833 0
5351 5355 4833 0
-5356 4833 0
5351 -5352 -5355 5356 -4834 0
-5351 -5352 -5355 -5356 -4834 0
-5351 5356 4834 0
5351 -5356 4834 0
5352 4834 0
5355 4834 0
-5337 5338 5347 5348 -4835 0
5337 -5338 -5347 5348 -4835 0
-5337 -5338 4835 0
-5337 -5347 4835 0
5337 5338 4835 0
5337 5347 4835 0
-5348 4835 0
5337 -5338 -5347 5348 -4836 0
-5337 -5338 -5347 -5348 -4836 0
-5337 5348 4836 0
5337 -5348 4836 0
5338 4836 0
5347 4836 0
-4833 4834 4835 4836 -4837 0
4833 -4834 -4835 4836 -4837 0
-4833 -4834 4837 0
-4833 -4835 4837 0
4833 4834 4837 0
4833 4835 4837 0
-4836 4837 0
4833 -4834 -4835 4836 -4838 0
-4833 -4834 -4835 -4836 -4838 0
-4833 4836 4838 0
4833 -4836 4838 0
4834 4838 0
4835 4838 0
-5375 5376 5377 5378 -4839 0
5375 -5376 -5377 5378 -4839 0
-5375 -5376 4839 0
-5375 -5377 4839 0
5375 5376 4839 0
5375 5377 4839 0
-5378 4839 0
5375 -5376 -5377 5378 -4840 0
-5375 -5376 -5377 -5378 -4840 0
-5375 5378 4840 0
5375 -5378 4840 0
5376 4840 0
5377 4840 0
-5363 5364 5371 5372 -4841 0
5363 -5364 -5371 5372 -4841 0
-5363 -5364 4841 0
-5363 -5371 4841 0
5363 5364 4841 0
5363 5371 4841 0
-5372 4841 0
5363 -5364 -5371 5372 -4842 0
-5363 -5364 -5371 -5372 -4842 0
-5363 5372 4842 0
5363 -5372 4842 0
5364 4842 0
5371 4842 0
-4839 4840 4841 4842 -4843 0
4839 -4840 -4841 4842 -4843 0
-4839 -4840 4843 0
-4839 -4841 4843 0
4839 4840 4843 0
4839 4841 4843 0
-4842 4843 0
4839 -4840 -4841 4842 -4844 0
-4839 -4840 -4841 -4842 -4844 0
-4839 4842 4844 0
4839 -4842 4844 0
4840 4844 0
4841 4844 0
-5391 5392 5393 5394 -4845 0
5391 -5392 -5393 5394 -4845 0
-5391 -5392 4845 0
-5391 -5393 4845 0
5391 5392 4845 0
5391 5393 4845 0
-5394 4845 0
5391 -5392 -5393 5394 -4846 0
-5391 -5392 -5393 -5394 -4846 0
-5391 5394 4846 0
5391 -5394 4846 0
5392 4846 0
5393 4846 0
-5383 5384 5389 5390 -4847 0
5383 -5384 -5389 5390 -4847 0
-5383 -5384 4847 0
-5383 -5389 4847 0
5383 5384 4847 0
5383 5389 4847 0
-5390 4847 0
5383 -5384 -5389 5390 -4848 0
-5383 -5384 -5389 -5390 -4848 0
-5383 5390 4848 0
5383 -5390 4848 0
5384 4848 0
5389 4848 0
-4845 4846 4847 4848 -4849 0
4845 -4846 -4847 4848 -4849 0
-4845 -4846 4849 0
-4845 -4847 4849 0
4845 4846 4849 0
4845 4847 4849 0
-4848 4849 0
4845 -4846 -4847 4848 -4850 0
-4845 -4846 -4847 -4848 -4850 0
-4845 4848 4850 0
4845 -4848 4850 0
4846 4850 0
4847 4850 0
-5395 5396 5397 5398 -4851 0
5395 -5396 -5397 5398 -4851 0
-5395 -5396 4851 0
-5395 -5397 4851 0
5395 5396 4851 0
5395 5397 4851 0
-5398 4851 0
5395 -5396 -5397 5398 -4852 0
-5395 -5396 -5397 -5398 -4852 0
-5395 5398 4852 0
5395 -5398 4852 0
5396 4852 0
5397 4852 0
-5399 5400 5401 5402 -4853 0
5399 -5400 -5401 5402 -4853 0
-5399 -5400 4853 0
-5399 -5401 4853 0
5399 5400 4853 0
5399 5401 4853 0
-5402 4853 0
5399 -5400 -5401 5402 -4854 0
-5399 -5400 -5401 -5402 -4854 0
-5399 5402 4854 0
5399 -5402 4854 0
5400 4854 0
5401 4854 0
-4851 4852 4853 4854 -4855 0
4851 -4852 -4853 4854 -4855 0
-4851 -4852 4855 0
-4851 -4853 4855 0
4851 4852 4855 0
4851 4853 4855 0
-4854 4855 0
4851 -4852 -4853 4854 -4856 0
-4851 -4852 -4853 -4854 -4856 0
-4851 4854 4856 0
4851 -4854 4856 0
4852 4856 0
4853 4856 0
139 -140 141 142 -4857 0
-139 140 141 -142 -4857 0
-139 -140 4857 0
-139 142 4857 0
139 140 4857 0
139 -142 4857 0
-141 4857 0
-139 140 141 -142 -4858 0
-139 -140 -141 -142 -4858 0
-140 141 4858 0
140 -141 4858 0
139 4858 0
142 4858 0
139 -140 141 142 -4859 0
-139 140 141 -142 -4859 0
-139 -140 4859 0
-139 142 4859 0
139 140 4859 0
139 -142 4859 0
-141 4859 0
-139 140 141 -142 -4860 0
-139 -140 -141 -142 -4860 0
-140 141 4860 0
140 -141 4860 0
139 4860 0
142 4860 0
-5147 5148 5149 5150 -4861 0
5147 -5148 -5149 5150 -4861 0
-5147 -5148 4861 0
-5147 -5149 4861 0
5147 5148 4861 0
5147 5149 4861 0
-5150 4861 0
5147 -5148 -5149 5150 -4862 0
-5147 -5148 -5149 -5150 -4862 0
-5147 5150 4862 0
5147 -5150 4862 0
5148 4862 0
5149 4862 0
-5151 5152 5153 5154 -4863 0
5151 -5152 -5153 5154 -4863 0
-5151 -5152 4863 0
-5151 -5153 4863 0
5151 5152 4863 0
5151 5153 4863 0
-5154 4863 0
5151 -5152 -5153 5154 -4864 0
-5151 -5152 -5153 -5154 -4864 0
-5151 5154 4864 0
5151 -5154 4864 0
5152 4864 0
5153 4864 0
-5155 5156 5157 5158 -4865 0
5155 -5156 -5157 5158 -4865 0
-5155 -5156 4865 0
-5155 -5157 4865 0
5155 5156 4865 0
5155 5157 4865 0
-5158 4865 0
5155 -5156 -5157 5158 -4866 0
-5155 -5156 -5157 -5158 -4866 0
-5155 5158 4866 0
5155 -5158 4866 0
5156 4866 0
5157 4866 0
13 -14 5159 5160 -4867 0
-13 14 -5159 5160 -4867 0
-13 -14 4867 0
-13 5159 4867 0
13 14 4867 0
13 -5159 4867 0
-5160 4867 0
-13 14 -5159 5160 -4868 0
-13 -14 -5159 -5160 -4868 0
-14 5160 4868 0
14 -5160 4868 0
13 4868 0
5159 4868 0
87 -88 151 152 -4869 0
-87 88 151 -152 -4869 0
-87 -88 4869 0
-87 152 4869 0
87 88 4869 0
87 -152 4869 0
-151 4869 0
-87 88 151 -152 -4870 0
-87 -88 -151 -152 -4870 0
-88 151 4870 0
88 -151 4870 0
87 4870 0
152 4870 0
87 -88 151 152 -4871 0
-87 88 151 -152 -4871 0
-87 -88 4871 0
-87 152 4871 0
87 88 4871 0
87 -152 4871 0
-151 4871 0
-87 88 151 -152 -4872 0
-87 -88 -151 -152 -4872 0
-88 151 4872 0
88 -151 4872 0
87 4872 0
152 4872 0
-3535 3536 5895 5896 -4873 0
3535 -3536 -5895 5896 -4873 0
-3535 -3536 4873 0
-3535 -5895 4873 0
3535 3536 4873 0
3535 5895 4873 0
-5896 4873 0
3535 -3536 -5895 5896 -4874 0
-3535 -3536 -5895 -5896 -4874 0
-3535 5896 4874 0
3535 -5896 4874 0
3536 4874 0
5895 4874 0
-3547 3548 5897 5898 -4875 0
3547 -3548 -5897 5898 -4875 0
-3547 -3548 4875 0
-3547 -5897 4875 0
3547 3548 4875 0
3547 5897 4875 0
-5898 4875 0
3547 -3548 -5897 5898 -4876 0
-3547 -3548 -5897 -5898 -4876 0
-3547 5898 4876 0
3547 -5898 4876 0
3548 4876 0
5897 4876 0
-4873 4874 4875 4876 -4877 0
4873 -4874 -4875 4876 -4877 0
-4873 -4874 4877 0
-4873 -4875 4877 0
4873 4874 4877 0
4873 4875 4877 0
-4876 4877 0
4873 -4874 -4875 4876 -4878 0
-4873 -4874 -4875 -4876 -4878 0
-4873 4876 4878 0
4873 -4876 4878 0
4874 4878 0
4875 4878 0
231 -232 5899 5900 -4879 0
-231 232 -5899 5900 -4879 0
-231 -232 4879 0
-231 5899 4879 0
231 232 4879 0
231 -5899 4879 0
-5900 4879 0
-231 232 -5899 5900 -4880 0
-231 -232 -5899 -5900 -4880 0
-232 5900 4880 0
232 -5900 4880 0
231 4880 0
5899 4880 0
259 -260 3535 3536 -4881 0
-259 260 -3535 3536 -4881 0
-259 -260 4881 0
-259 3535 4881 0
259 260 4881 0
259 -3535 4881 0
-3536 4881 0
-259 260 -3535 3536 -4882 0
-259 -260 -3535 -3536 -4882 0
-260 3536 4882 0
260 -3536 4882 0
259 4882 0
3535 4882 0
-4879 4880 4881 4882 -4883 0
4879 -4880 -4881 4882 -4883 0
-4879 -4880 4883 0
-4879 -4881 4883 0
4879 4880 4883 0
4879 4881 4883 0
-4882 4883 0
4879 -4880 -4881 4882 -4884 0
-4879 -4880 -4881 -4882 -4884 0
-4879 4882 4884 0
4879 -4882 4884 0
4880 4884 0
4881 4884 0
-4877 4878 4883 4884 -4885 0
4877 -4878 -4883 4884 -4885 0
-4877 -4878 4885 0
-4877 -4883 4885 0
4877 4878 4885 0
4877 4883 4885 0
-4884 4885 0
4877 -4878 -4883 4884 -4886 0
-4877 -4878 -4883 -4884 -4886 0
-4877 4884 4886 0
4877 -4884 4886 0
4878 4886 0
4883 4886 0
199 -200 259 260 -4887 0
-199 200 259 -260 -4887 0
-199 -200 4887 0
-199 260 4887 0
199 200 4887 0
199 -260 4887 0
-259 4887 0
-199 200 259 -260 -4888 0
-199 -200 -259 -260 -4888 0
-200 259 4888 0
200 -259 4888 0
199 4888 0
260 4888 0
-3535 3536 3553 3554 -4889 0
3535 -3536 -3553 3554 -4889 0
-3535 -3536 4889 0
-3535 -3553 4889 0
3535 3536 4889 0
3535 3553 4889 0
-3554 4889 0
3535 -3536 -3553 3554 -4890 0
-3535 -3536 -3553 -3554 -4890 0
-3535 3554 4890 0
3535 -3554 4890 0
3536 4890 0
3553 4890 0
-4887 4888 4889 4890 -4891 0
4887 -4888 -4889 4890 -4891 0
-4887 -4888 4891 0
-4887 -4889 4891 0
4887 4888 4891 0
4887 4889 4891 0
-4890 4891 0
4887 -4888 -4889 4890 -4892 0
-4887 -4888 -4889 -4890 -4892 0
-4887 4890 4892 0
4887 -4890 4892 0
4888 4892 0
4889 4892 0
197 -198 259 260 -4893 0
-197 198 259 -260 -4893 0
-197 -198 4893 0
-197 260 4893 0
197 198 4893 0
197 -260 4893 0
-259 4893 0
-197 198 259 -260 -4894 0
-197 -198 -259 -260 -4894 0
-198 259 4894 0
198 -259 4894 0
197 4894 0
260 4894 0
-3535 3536 5145 5146 -4895 0
3535 -3536 -5145 5146 -4895 0
-3535 -3536 4895 0
-3535 -5145 4895 0
3535 3536 4895 0
3535 5145 4895 0
-5146 4895 0
3535 -3536 -5145 5146 -4896 0
-3535 -3536 -5145 -5146 -4896 0
-3535 5146 4896 0
3535 -5146 4896 0
3536 4896 0
5145 4896 0
-4893 4894 4895 4896 -4897 0
4893 -4894 -4895 4896 -4897 0
-4893 -4894 4897 0
-4893 -4895 4897 0
4893 4894 4897 0
4893 4895 4897 0
-4896 4897 0
4893 -4894 -4895 4896 -4898 0
-4893 -4894 -4895 -4896 -4898 0
-4893 4896 4898 0
4893 -4896 4898 0
4894 4898 0
4895 4898 0
-4891 4892 4897 4898 -4899 0
4891 -4892 -4897 4898 -4899 0
-4891 -4892 4899 0
-4891 -4897 4899 0
4891 4892 4899 0
4891 4897 4899 0
-4898 4899 0
4891 -4892 -4897 4898 -4900 0
-4891 -4892 -4897 -4898 -4900 0
-4891 4898 4900 0
4891 -4898 4900 0
4892 4900 0
4897 4900 0
201 -202 203 204 -4901 0
-201 202 203 -204 -4901 0
-201 -202 4901 0
-201 204 4901 0
201 202 4901 0
201 -204 4901 0
-203 4901 0
-201 202 203 -204 -4902 0
-201 -202 -203 -204 -4902 0
-202 203 4902 0
202 -203 4902 0
201 4902 0
204 4902 0
199 -200 257 258 -4903 0
-199 200 257 -258 -4903 0
-199 -200 4903 0
-199 258 4903 0
199 200 4903 0
199 -258 4903 0
-257 4903 0
-199 200 257 -258 -4904 0
-199 -200 -257 -258 -4904 0
-200 257 4904 0
200 -257 4904 0
199 4904 0
258 4904 0
259 -260 3535 3536 -4905 0
-259 260 -3535 3536 -4905 0
-259 -260 4905 0
-259 3535 4905 0
259 260 4905 0
259 -3535 4905 0
-3536 4905 0
-259 260 -3535 3536 -4906 0
-259 -260 -3535 -3536 -4906 0
-260 3536 4906 0
260 -3536 4906 0
259 4906 0
3535 4906 0
-4903 4904 4905 4906 -4907 0
4903 -4904 -4905 4906 -4907 0
-4903 -4904 4907 0
-4903 -4905 4907 0
4903 4904 4907 0
4903 4905 4907 0
-4906 4907 0
4903 -4904 -4905 4906 -4908 0
-4903 -4904 -4905 -4906 -4908 0
-4903 4906 4908 0
4903 -4906 4908 0
4904 4908 0
4905 4908 0
201 -202 3263 3264 -4909 0
-201 202 -3263 3264 -4909 0
-201 -202 4909 0
-201 3263 4909 0
201 202 4909 0
201 -3263 4909 0
-3264 4909 0
-201 202 -3263 3264 -4910 0
-201 -202 -3263 -3264 -4910 0
-202 3264 4910 0
202 -3264 4910 0
201 4910 0
3263 4910 0
-3897 3898 4909 4910 -4911 0
3897 -3898 -4909 4910 -4911 0
-3897 -3898 4911 0
-3897 -4909 4911 0
3897 3898 4911 0
3897 4909 4911 0
-4910 4911 0
3897 -3898 -4909 4910 -4912 0
-3897 -3898 -4909 -4910 -4912 0
-3897 4910 4912 0
3897 -4910 4912 0
3898 4912 0
4909 4912 0
-4907 4908 4911 4912 -4913 0
4907 -4908 -4911 4912 -4913 0
-4907 -4908 4913 0
-4907 -4911 4913 0
4907 4908 4913 0
4907 4911 4913 0
-4912 4913 0
4907 -4908 -4911 4912 -4914 0
-4907 -4908 -4911 -4912 -4914 0
-4907 4912 4914 0
4907 -4912 4914 0
4908 4914 0
4911 4914 0
167 -168 169 170 -4915 0
-167 168 169 -170 -4915 0
-167 -168 4915 0
-167 170 4915 0
167 168 4915 0
167 -170 4915 0
-169 4915 0
-167 168 169 -170 -4916 0
-167 -168 -169 -170 -4916 0
-168 169 4916 0
168 -169 4916 0
167 4916 0
170 4916 0
171 -172 4915 4916 -4917 0
-171 172 -4915 4916 -4917 0
-171 -172 4917 0
-171 4915 4917 0
171 172 4917 0
171 -4915 4917 0
-4916 4917 0
-171 172 -4915 4916 -4918 0
-171 -172 -4915 -4916 -4918 0
-172 4916 4918 0
172 -4916 4918 0
171 4918 0
4915 4918 0
167 -168 169 170 -4919 0
-167 168 169 -170 -4919 0
-167 -168 4919 0
-167 170 4919 0
167 168 4919 0
167 -170 4919 0
-169 4919 0
-167 168 169 -170 -4920 0
-167 -168 -169 -170 -4920 0
-168 169 4920 0
168 -169 4920 0
167 4920 0
170 4920 0
171 -172 4919 4920 -4921 0
-171 172 -4919 4920 -4921 0
-171 -172 4921 0
-171 4919 4921 0
171 172 4921 0
171 -4919 4921 0
-4920 4921 0
-171 172 -4919 4920 -4922 0
-171 -172 -4919 -4920 -4922 0
-172 4920 4922 0
172 -4920 4922 0
171 4922 0
4919 4922 0
-5901 5902 5903 5904 -4923 0
5901 -5902 -5903 5904 -4923 0
-5901 -5902 4923 0
-5901 -5903 4923 0
5901 5902 4923 0
5901 5903 4923 0
-5904 4923 0
5901 -5902 -5903 5904 -4924 0
-5901 -5902 -5903 -5904 -4924 0
-5901 5904 4924 0
5901 -5904 4924 0
5902 4924 0
5903 4924 0
-4559 4560 5905 5906 -4925 0
4559 -4560 -5905 5906 -4925 0
-4559 -4560 4925 0
-4559 -5905 4925 0
4559 4560 4925 0
4559 5905 4925 0
-5906 4925 0
4559 -4560 -5905 5906 -4926 0
-4559 -4560 -5905 -5906 -4926 0
-4559 5906 4926 0
4559 -5906 4926 0
4560 4926 0
5905 4926 0
-4923 4924 4925 4926 -4927 0
4923 -4924 -4925 4926 -4927 0
-4923 -4924 4927 0
-4923 -4925 4927 0
4923 4924 4927 0
4923 4925 4927 0
-4926 4927 0
4923 -4924 -4925 4926 -4928 0
-4923 -4924 -4925 -4926 -4928 0
-4923 4926 4928 0
4923 -4926 4928 0
4924 4928 0
4925 4928 0
-5907 5908 5909 5910 -4929 0
5907 -5908 -5909 5910 -4929 0
-5907 -5908 4929 0
-5907 -5909 4929 0
5907 5908 4929 0
5907 5909 4929 0
-5910 4929 0
5907 -5908 -5909 5910 -4930 0
-5907 -5908 -5909 -5910 -4930 0
-5907 5910 4930 0
5907 -5910 4930 0
5908 4930 0
5909 4930 0
-4559 4560 5911 5912 -4931 0
4559 -4560 -5911 5912 -4931 0
-4559 -4560 4931 0
-4559 -5911 4931 0
4559 4560 4931 0
4559 5911 4931 0
-5912 4931 0
4559 -4560 -5911 5912 -4932 0
-4559 -4560 -5911 -5912 -4932 0
-4559 5912 4932 0
4559 -5912 4932 0
4560 4932 0
5911 4932 0
-4929 4930 4931 4932 -4933 0
4929 -4930 -4931 4932 -4933 0
-4929 -4930 4933 0
-4929 -4931 4933 0
4929 4930 4933 0
4929 4931 4933 0
-4932 4933 0
4929 -4930 -4931 4932 -4934 0
-4929 -4930 -4931 -4932 -4934 0
-4929 4932 4934 0
4929 -4932 4934 0
4930 4934 0
4931 4934 0
-5913 5914 5915 5916 -4935 0
5913 -5914 -5915 5916 -4935 0
-5913 -5914 4935 0
-5913 -5915 4935 0
5913 5914 4935 0
5913 5915 4935 0
-5916 4935 0
5913 -5914 -5915 5916 -4936 0
-5913 -5914 -5915 -5916 -4936 0
-5913 5916 4936 0
5913 -5916 4936 0
5914 4936 0
5915 4936 0
-4559 4560 5917 5918 -4937 0
4559 -4560 -5917 5918 -4937 0
-4559 -4560 4937 0
-4559 -5917 4937 0
4559 4560 4937 0
4559 5917 4937 0
-5918 4937 0
4559 -4560 -5917 5918 -4938 0
-4559 -4560 -5917 -5918 -4938 0
-4559 5918 4938 0
4559 -5918 4938 0
4560 4938 0
5917 4938 0
-4935 4936 4937 4938 -4939 0
4935 -4936 -4937 4938 -4939 0
-4935 -4936 4939 0
-4935 -4937 4939 0
4935 4936 4939 0
4935 4937 4939 0
-4938 4939 0
4935 -4936 -4937 4938 -4940 0
-4935 -4936 -4937 -4938 -4940 0
-4935 4938 4940 0
4935 -4938 4940 0
4936 4940 0
4937 4940 0
-5919 5920 5921 5922 -4941 0
5919 -5920 -5921 5922 -4941 0
-5919 -5920 4941 0
-5919 -5921 4941 0
5919 5920 4941 0
5919 5921 4941 0
-5922 4941 0
5919 -5920 -5921 5922 -4942 0
-5919 -5920 -5921 -5922 -4942 0
-5919 5922 4942 0
5919 -5922 4942 0
5920 4942 0
5921 4942 0
-4559 4560 5923 5924 -4943 0
4559 -4560 -5923 5924 -4943 0
-4559 -4560 4943 0
-4559 -5923 4943 0
4559 4560 4943 0
4559 5923 4943 0
-5924 4943 0
4559 -4560 -5923 5924 -4944 0
-4559 -4560 -5923 -5924 -4944 0
-4559 5924 4944 0
4559 -5924 4944 0
4560 4944 0
5923 4944 0
-4941 4942 4943 4944 -4945 0
4941 -4942 -4943 4944 -4945 0
-4941 -4942 4945 0
-4941 -4943 4945 0
4941 4942 4945 0
4941 4943 4945 0
-4944 4945 0
4941 -4942 -4943 4944 -4946 0
-4941 -4942 -4943 -4944 -4946 0
-4941 4944 4946 0
4941 -4944 4946 0
4942 4946 0
4943 4946 0
141 -142 5925 5926 -4947 0
-141 142 -5925 5926 -4947 0
-141 -142 4947 0
-141 5925 4947 0
141 142 4947 0
141 -5925 4947 0
-5926 4947 0
-141 142 -5925 5926 -4948 0
-141 -142 -5925 -5926 -4948 0
-142 5926 4948 0
142 -5926 4948 0
141 4948 0
5925 4948 0
185 -186 5927 5928 -4949 0
-185 186 -5927 5928 -4949 0
-185 -186 4949 0
-185 5927 4949 0
185 186 4949 0
185 -5927 4949 0
-5928 4949 0
-185 186 -5927 5928 -4950 0
-185 -186 -5927 -5928 -4950 0
-186 5928 4950 0
186 -5928 4950 0
185 4950 0
5927 4950 0
-4947 4948 4949 4950 -4951 0
4947 -4948 -4949 4950 -4951 0
-4947 -4948 4951 0
-4947 -4949 4951 0
4947 4948 4951 0
4947 4949 4951 0
-4950 4951 0
4947 -4948 -4949 4950 -4952 0
-4947 -4948 -4949 -4950 -4952 0
-4947 4950 4952 0
4947 -4950 4952 0
4948 4952 0
4949 4952 0
141 -142 5929 5930 -4953 0
-141 142 -5929 5930 -4953 0
-141 -142 4953 0
-141 5929 4953 0
141 142 4953 0
141 -5929 4953 0
-5930 4953 0
-141 142 -5929 5930 -4954 0
-141 -142 -5929 -5930 -4954 0
-142 5930 4954 0
142 -5930 4954 0
141 4954 0
5929 4954 0
185 -186 5931 5932 -4955 0
-185 186 -5931 5932 -4955 0
-185 -186 4955 0
-185 5931 4955 0
185 186 4955 0
185 -5931 4955 0
-5932 4955 0
-185 186 -5931 5932 -4956 0
-185 -186 -5931 -5932 -4956 0
-186 5932 4956 0
186 -5932 4956 0
185 4956 0
5931 4956 0
-4953 4954 4955 4956 -4957 0
4953 -4954 -4955 4956 -4957 0
-4953 -4954 4957 0
-4953 -4955 4957 0
4953 4954 4957 0
4953 4955 4957 0
-4956 4957 0
4953 -4954 -4955 4956 -4958 0
-4953 -4954 -4955 -4956 -4958 0
-4953 4956 4958 0
4953 -4956 4958 0
4954 4958 0
4955 4958 0
141 -142 5933 5934 -4959 0
-141 142 -5933 5934 -4959 0
-141 -142 4959 0
-141 5933 4959 0
141 142 4959 0
141 -5933 4959 0
-5934 4959 0
-141 142 -5933 5934 -4960 0
-141 -142 -5933 -5934 -4960 0
-142 5934 4960 0
142 -5934 4960 0
141 4960 0
5933 4960 0
185 -186 5935 5936 -4961 0
-185 186 -5935 5936 -4961 0
-185 -186 4961 0
-185 5935 4961 0
185 186 4961 0
185 -5935 4961 0
-5936 4961 0
-185 186 -5935 5936 -4962 0
-185 -186 -5935 -5936 -4962 0
-186 5936 4962 0
186 -5936 4962 0
185 4962 0
5935 4962 0
-4959 4960 4961 4962 -4963 0
4959 -4960 -4961 4962 -4963 0
-4959 -4960 4963 0
-4959 -4961 4963 0
4959 4960 4963 0
4959 4961 4963 0
-4962 4963 0
4959 -4960 -4961 4962 -4964 0
-4959 -4960 -4961 -4962 -4964 0
-4959 4962 4964 0
4959 -4962 4964 0
4960 4964 0
4961 4964 0
141 -142 5937 5938 -4965 0
-141 142 -5937 5938 -4965 0
-141 -142 4965 0
-141 5937 4965 0
141 142 4965 0
141 -5937 4965 0
-5938 4965 0
-141 142 -5937 5938 -4966 0
-141 -142 -5937 -5938 -4966 0
-142 5938 4966 0
142 -5938 4966 0
141 4966 0
5937 4966 0
185 -186 5939 5940 -4967 0
-185 186 -5939 5940 -4967 0
-185 -186 4967 0
-185 5939 4967 0
185 186 4967 0
185 -5939 4967 0
-5940 4967 0
-185 186 -5939 5940 -4968 0
-185 -186 -5939 -5940 -4968 0
-186 5940 4968 0
186 -5940 4968 0
185 4968 0
5939 4968 0
-4965 4966 4967 4968 -4969 0
4965 -4966 -4967 4968 -4969 0
-4965 -4966 4969 0
-4965 -4967 4969 0
4965 4966 4969 0
4965 4967 4969 0
-4968 4969 0
4965 -4966 -4967 4968 -4970 0
-4965 -4966 -4967 -4968 -4970 0
-4965 4968 4970 0
4965 -4968 4970 0
4966 4970 0
4967 4970 0
223 -224 225 226 -4971 0
-223 224 225 -226 -4971 0
-223 -224 4971 0
-223 226 4971 0
223 224 4971 0
223 -226 4971 0
-225 4971 0
-223 224 225 -226 -4972 0
-223 -224 -225 -226 -4972 0
-224 225 4972 0
224 -225 4972 0
223 4972 0
226 4972 0
233 -234 4213 4214 -4973 0
-233 234 -4213 4214 -4973 0
-233 -234 4973 0
-233 4213 4973 0
233 234 4973 0
233 -4213 4973 0
-4214 4973 0
-233 234 -4213 4214 -4974 0
-233 -234 -4213 -4214 -4974 0
-234 4214 4974 0
234 -4214 4974 0
233 4974 0
4213 4974 0
-4971 4972 4973 4974 -4975 0
4971 -4972 -4973 4974 -4975 0
-4971 -4972 4975 0
-4971 -4973 4975 0
4971 4972 4975 0
4971 4973 4975 0
-4974 4975 0
4971 -4972 -4973 4974 -4976 0
-4971 -4972 -4973 -4974 -4976 0
-4971 4974 4976 0
4971 -4974 4976 0
4972 4976 0
4973 4976 0
217 -218 4213 4214 -4977 0
-217 218 -4213 4214 -4977 0
-217 -218 4977 0
-217 4213 4977 0
217 218 4977 0
217 -4213 4977 0
-4214 4977 0
-217 218 -4213 4214 -4978 0
-217 -218 -4213 -4214 -4978 0
-218 4214 4978 0
218 -4214 4978 0
217 4978 0
4213 4978 0
223 -224 225 226 -4979 0
-223 224 225 -226 -4979 0
-223 -224 4979 0
-223 226 4979 0
223 224 4979 0
223 -226 4979 0
-225 4979 0
-223 224 225 -226 -4980 0
-223 -224 -225 -226 -4980 0
-224 225 4980 0
224 -225 4980 0
223 4980 0
226 4980 0
233 -234 4213 4214 -4981 0
-233 234 -4213 4214 -4981 0
-233 -234 4981 0
-233 4213 4981 0
233 234 4981 0
233 -4213 4981 0
-4214 4981 0
-233 234 -4213 4214 -4982 0
-233 -234 -4213 -4214 -4982 0
-234 4214 4982 0
234 -4214 4982 0
233 4982 0
4213 4982 0
-4979 4980 4981 4982 -4983 0
4979 -4980 -4981 4982 -4983 0
-4979 -4980 4983 0
-4979 -4981 4983 0
4979 4980 4983 0
4979 4981 4983 0
-4982 4983 0
4979 -4980 -4981 4982 -4984 0
-4979 -4980 -4981 -4982 -4984 0
-4979 4982 4984 0
4979 -4982 4984 0
4980 4984 0
4981 4984 0
219 -220 4213 4214 -4985 0
-219 220 -4213 4214 -4985 0
-219 -220 4985 0
-219 4213 4985 0
219 220 4985 0
219 -4213 4985 0
-4214 4985 0
-219 220 -4213 4214 -4986 0
-219 -220 -4213 -4214 -4986 0
-220 4214 4986 0
220 -4214 4986 0
219 4986 0
4213 4986 0
-4995 4996 4997 4998 -4987 0
4995 -4996 -4997 4998 -4987 0
-4995 -4996 4987 0
-4995 -4997 4987 0
4995 4996 4987 0
4995 4997 4987 0
-4998 4987 0
4995 -4996 -4997 4998 -4988 0
-4995 -4996 -4997 -4998 -4988 0
-4995 4998 4988 0
4995 -4998 4988 0
4996 4988 0
4997 4988 0
1 -2 27 28 -4989 0
-1 2 27 -28 -4989 0
-1 -2 4989 0
-1 28 4989 0
1 2 4989 0
1 -28 4989 0
-27 4989 0
-1 2 27 -28 -4990 0
-1 -2 -27 -28 -4990 0
-2 27 4990 0
2 -27 4990 0
1 4990 0
28 4990 0
1 -2 141 142 -4991 0
-1 2 141 -142 -4991 0
-1 -2 4991 0
-1 142 4991 0
1 2 4991 0
1 -142 4991 0
-141 4991 0
-1 2 141 -142 -4992 0
-1 -2 -141 -142 -4992 0
-2 141 4992 0
2 -141 4992 0
1 4992 0
142 4992 0
1 -2 139 140 -4993 0
-1 2 139 -140 -4993 0
-1 -2 4993 0
-1 140 4993 0
1 2 4993 0
1 -140 4993 0
-139 4993 0
-1 2 139 -140 -4994 0
-1 -2 -139 -140 -4994 0
-2 139 4994 0
2 -139 4994 0
1 4994 0
140 4994 0
1 -2 7 8 -4995 0
-1 2 7 -8 -4995 0
-1 -2 4995 0
-1 8 4995 0
1 2 4995 0
1 -8 4995 0
-7 4995 0
-1 2 7 -8 -4996 0
-1 -2 -7 -8 -4996 0
-2 7 4996 0
2 -7 4996 0
1 4996 0
8 4996 0
9 -10 11 12 -4997 0
-9 10 11 -12 -4997 0
-9 -10 4997 0
-9 12 4997 0
9 10 4997 0
9 -12 4997 0
-11 4997 0
-9 10 11 -12 -4998 0
-9 -10 -11 -12 -4998 0
-10 11 4998 0
10 -11 4998 0
9 4998 0
12 4998 0
91 -92 197 198 -4999 0
-91 92 197 -198 -4999 0
-91 -92 4999 0
-91 198 4999 0
91 92 4999 0
91 -198 4999 0
-197 4999 0
-91 92 197 -198 -5000 0
-91 -92 -197 -198 -5000 0
-92 197 5000 0
92 -197 5000 0
91 5000 0
198 5000 0
231 -232 4051 4052 -5001 0
-231 232 -4051 4052 -5001 0
-231 -232 5001 0
-231 4051 5001 0
231 232 5001 0
231 -4051 5001 0
-4052 5001 0
-231 232 -4051 4052 -5002 0
-231 -232 -4051 -4052 -5002 0
-232 4052 5002 0
232 -4052 5002 0
231 5002 0
4051 5002 0
-4999 5000 5001 5002 -5003 0
4999 -5000 -5001 5002 -5003 0
-4999 -5000 5003 0
-4999 -5001 5003 0
4999 5000 5003 0
4999 5001 5003 0
-5002 5003 0
4999 -5000 -5001 5002 -5004 0
-4999 -5000 -5001 -5002 -5004 0
-4999 5002 5004 0
4999 -5002 5004 0
5000 5004 0
5001 5004 0
-5501 5502 5503 5504 -5005 0
5501 -5502 -5503 5504 -5005 0
-5501 -5502 5005 0
-5501 -5503 5005 0
5501 5502 5005 0
5501 5503 5005 0
-5504 5005 0
5501 -5502 -5503 5504 -5006 0
-5501 -5502 -5503 -5504 -5006 0
-5501 5504 5006 0
5501 -5504 5006 0
5502 5006 0
5503 5006 0
-5505 5506 5507 5508 -5007 0
5505 -5506 -5507 5508 -5007 0
-5505 -5506 5007 0
-5505 -5507 5007 0
5505 5506 5007 0
5505 5507 5007 0
-5508 5007 0
5505 -5506 -5507 5508 -5008 0
-5505 -5506 -5507 -5508 -5008 0
-5505 5508 5008 0
5505 -5508 5008 0
5506 5008 0
5507 5008 0
-5005 5006 5007 5008 -5009 0
5005 -5006 -5007 5008 -5009 0
-5005 -5006 5009 0
-5005 -5007 5009 0
5005 5006 5009 0
5005 5007 5009 0
-5008 5009 0
5005 -5006 -5007 5008 -5010 0
-5005 -5006 -5007 -5008 -5010 0
-5005 5008 5010 0
5005 -5008 5010 0
5006 5010 0
5007 5010 0
41 -42 89 90 -5011 0
-41 42 89 -90 -5011 0
-41 -42 5011 0
-41 90 5011 0
41 42 5011 0
41 -90 5011 0
-89 5011 0
-41 42 89 -90 -5012 0
-41 -42 -89 -90 -5012 0
-42 89 5012 0
42 -89 5012 0
41 5012 0
90 5012 0
259 -260 5011 5012 -5013 0
-259 260 -5011 5012 -5013 0
-259 -260 5013 0
-259 5011 5013 0
259 260 5013 0
259 -5011 5013 0
-5012 5013 0
-259 260 -5011 5012 -5014 0
-259 -260 -5011 -5012 -5014 0
-260 5012 5014 0
260 -5012 5014 0
259 5014 0
5011 5014 0
259 -260 5509 5510 -5015 0
-259 260 -5509 5510 -5015 0
-259 -260 5015 0
-259 5509 5015 0
259 260 5015 0
259 -5509 5015 0
-5510 5015 0
-259 260 -5509 5510 -5016 0
-259 -260 -5509 -5510 -5016 0
-260 5510 5016 0
260 -5510 5016 0
259 5016 0
5509 5016 0
-3535 3536 5511 5512 -5017 0
3535 -3536 -5511 5512 -5017 0
-3535 -3536 5017 0
-3535 -5511 5017 0
3535 3536 5017 0
3535 5511 5017 0
-5512 5017 0
3535 -3536 -5511 5512 -5018 0
-3535 -3536 -5511 -5512 -5018 0
-3535 5512 5018 0
3535 -5512 5018 0
3536 5018 0
5511 5018 0
-5015 5016 5017 5018 -5019 0
5015 -5016 -5017 5018 -5019 0
-5015 -5016 5019 0
-5015 -5017 5019 0
5015 5016 5019 0
5015 5017 5019 0
-5018 5019 0
5015 -5016 -5017 5018 -5020 0
-5015 -5016 -5017 -5018 -5020 0
-5015 5018 5020 0
5015 -5018 5020 0
5016 5020 0
5017 5020 0
-4615 4616 4645 4646 -5021 0
4615 -4616 -4645 4646 -5021 0
-4615 -4616 5021 0
-4615 -4645 5021 0
4615 4616 5021 0
4615 4645 5021 0
-4646 5021 0
4615 -4616 -4645 4646 -5022 0
-4615 -4616 -4645 -4646 -5022 0
-4615 4646 5022 0
4615 -4646 5022 0
4616 5022 0
4645 5022 0
-3535 3536 5513 5514 -5023 0
3535 -3536 -5513 5514 -5023 0
-3535 -3536 5023 0
-3535 -5513 5023 0
3535 3536 5023 0
3535 5513 5023 0
-5514 5023 0
3535 -3536 -5513 5514 -5024 0
-3535 -3536 -5513 -5514 -5024 0
-3535 5514 5024 0
3535 -5514 5024 0
3536 5024 0
5513 5024 0
-4051 4052 3755 3756 -5025 0
4051 -4052 -3755 3756 -5025 0
-4051 -4052 5025 0
-4051 -3755 5025 0
4051 4052 5025 0
4051 3755 5025 0
-3756 5025 0
4051 -4052 -3755 3756 -5026 0
-4051 -4052 -3755 -3756 -5026 0
-4051 3756 5026 0
4051 -3756 5026 0
4052 5026 0
3755 5026 0
-5023 5024 5025 5026 -5027 0
5023 -5024 -5025 5026 -5027 0
-5023 -5024 5027 0
-5023 -5025 5027 0
5023 5024 5027 0
5023 5025 5027 0
-5026 5027 0
5023 -5024 -5025 5026 -5028 0
-5023 -5024 -5025 -5026 -5028 0
-5023 5026 5028 0
5023 -5026 5028 0
5024 5028 0
5025 5028 0
179 -180 3759 3760 -5029 0
-179 180 -3759 3760 -5029 0
-179 -180 5029 0
-179 3759 5029 0
179 180 5029 0
179 -3759 5029 0
-3760 5029 0
-179 180 -3759 3760 -5030 0
-179 -180 -3759 -3760 -5030 0
-180 3760 5030 0
180 -3760 5030 0
179 5030 0
3759 5030 0
-3759 3760 4551 4552 -5031 0
3759 -3760 -4551 4552 -5031 0
-3759 -3760 5031 0
-3759 -4551 5031 0
3759 3760 5031 0
3759 4551 5031 0
-4552 5031 0
3759 -3760 -4551 4552 -5032 0
-3759 -3760 -4551 -4552 -5032 0
-3759 4552 5032 0
3759 -4552 5032 0
3760 5032 0
4551 5032 0
-4157 4158 3759 3760 -5033 0
4157 -4158 -3759 3760 -5033 0
-4157 -4158 5033 0
-4157 -3759 5033 0
4157 4158 5033 0
4157 3759 5033 0
-3760 5033 0
4157 -4158 -3759 3760 -5034 0
-4157 -4158 -3759 -3760 -5034 0
-4157 3760 5034 0
4157 -3760 5034 0
4158 5034 0
3759 5034 0
-5031 5032 5033 5034 -5035 0
5031 -5032 -5033 5034 -5035 0
-5031 -5032 5035 0
-5031 -5033 5035 0
5031 5032 5035 0
5031 5033 5035 0
-5034 5035 0
5031 -5032 -5033 5034 -5036 0
-5031 -5032 -5033 -5034 -5036 0
-5031 5034 5036 0
5031 -5034 5036 0
5032 5036 0
5033 5036 0
-5181 5182 5183 5184 -5037 0
5181 -5182 -5183 5184 -5037 0
-5181 -5182 5037 0
-5181 -5183 5037 0
5181 5182 5037 0
5181 5183 5037 0
-5184 5037 0
5181 -5182 -5183 5184 -5038 0
-5181 -5182 -5183 -5184 -5038 0
-5181 5184 5038 0
5181 -5184 5038 0
5182 5038 0
5183 5038 0
-5185 5186 5187 5188 -5039 0
5185 -5186 -5187 5188 -5039 0
-5185 -5186 5039 0
-5185 -5187 5039 0
5185 5186 5039 0
5185 5187 5039 0
-5188 5039 0
5185 -5186 -5187 5188 -5040 0
-5185 -5186 -5187 -5188 -5040 0
-5185 5188 5040 0
5185 -5188 5040 0
5186 5040 0
5187 5040 0
233 -234 4553 4554 -5041 0
-233 234 -4553 4554 -5041 0
-233 -234 5041 0
-233 4553 5041 0
233 234 5041 0
233 -4553 5041 0
-4554 5041 0
-233 234 -4553 4554 -5042 0
-233 -234 -4553 -4554 -5042 0
-234 4554 5042 0
234 -4554 5042 0
233 5042 0
4553 5042 0
-4217 4218 4149 4150 -5043 0
4217 -4218 -4149 4150 -5043 0
-4217 -4218 5043 0
-4217 -4149 5043 0
4217 4218 5043 0
4217 4149 5043 0
-4150 5043 0
4217 -4218 -4149 4150 -5044 0
-4217 -4218 -4149 -4150 -5044 0
-4217 4150 5044 0
4217 -4150 5044 0
4218 5044 0
4149 5044 0
223 -224 225 226 -5045 0
-223 224 225 -226 -5045 0
-223 -224 5045 0
-223 226 5045 0
223 224 5045 0
223 -226 5045 0
-225 5045 0
-223 224 225 -226 -5046 0
-223 -224 -225 -226 -5046 0
-224 225 5046 0
224 -225 5046 0
223 5046 0
226 5046 0
-4553 4554 4149 4150 -5047 0
4553 -4554 -4149 4150 -5047 0
-4553 -4554 5047 0
-4553 -4149 5047 0
4553 4554 5047 0
4553 4149 5047 0
-4150 5047 0
4553 -4554 -4149 4150 -5048 0
-4553 -4554 -4149 -4150 -5048 0
-4553 4150 5048 0
4553 -4150 5048 0
4554 5048 0
4149 5048 0
223 -224 225 226 -5049 0
-223 224 225 -226 -5049 0
-223 -224 5049 0
-223 226 5049 0
223 224 5049 0
223 -226 5049 0
-225 5049 0
-223 224 225 -226 -5050 0
-223 -224 -225 -226 -5050 0
-224 225 5050 0
224 -225 5050 0
223 5050 0
226 5050 0
-4553 4554 5049 5050 -5051 0
4553 -4554 -5049 5050 -5051 0
-4553 -4554 5051 0
-4553 -5049 5051 0
4553 4554 5051 0
4553 5049 5051 0
-5050 5051 0
4553 -4554 -5049 5050 -5052 0
-4553 -4554 -5049 -5050 -5052 0
-4553 5050 5052 0
4553 -5050 5052 0
4554 5052 0
5049 5052 0
233 -234 4553 4554 -5053 0
-233 234 -4553 4554 -5053 0
-233 -234 5053 0
-233 4553 5053 0
233 234 5053 0
233 -4553 5053 0
-4554 5053 0
-233 234 -4553 4554 -5054 0
-233 -234 -4553 -4554 -5054 0
-234 4554 5054 0
234 -4554 5054 0
233 5054 0
4553 5054 0
-4217 4218 4645 4646 -5055 0
4217 -4218 -4645 4646 -5055 0
-4217 -4218 5055 0
-4217 -4645 5055 0
4217 4218 5055 0
4217 4645 5055 0
-4646 5055 0
4217 -4218 -4645 4646 -5056 0
-4217 -4218 -4645 -4646 -5056 0
-4217 4646 5056 0
4217 -4646 5056 0
4218 5056 0
4645 5056 0
-5053 5054 5055 5056 -5057 0
5053 -5054 -5055 5056 -5057 0
-5053 -5054 5057 0
-5053 -5055 5057 0
5053 5054 5057 0
5053 5055 5057 0
-5056 5057 0
5053 -5054 -5055 5056 -5058 0
-5053 -5054 -5055 -5056 -5058 0
-5053 5056 5058 0
5053 -5056 5058 0
5054 5058 0
5055 5058 0
233 -234 4217 4218 -5059 0
-233 234 -4217 4218 -5059 0
-233 -234 5059 0
-233 4217 5059 0
233 234 5059 0
233 -4217 5059 0
-4218 5059 0
-233 234 -4217 4218 -5060 0
-233 -234 -4217 -4218 -5060 0
-234 4218 5060 0
234 -4218 5060 0
233 5060 0
4217 5060 0
-4645 4646 4149 4150 -5061 0
4645 -4646 -4149 4150 -5061 0
-4645 -4646 5061 0
-4645 -4149 5061 0
4645 4646 5061 0
4645 4149 5061 0
-4150 5061 0
4645 -4646 -4149 4150 -5062 0
-4645 -4646 -4149 -4150 -5062 0
-4645 4150 5062 0
4645 -4150 5062 0
4646 5062 0
4149 5062 0
-5059 5060 5061 5062 -5063 0
5059 -5060 -5061 5062 -5063 0
-5059 -5060 5063 0
-5059 -5061 5063 0
5059 5060 5063 0
5059 5061 5063 0
-5062 5063 0
5059 -5060 -5061 5062 -5064 0
-5059 -5060 -5061 -5062 -5064 0
-5059 5062 5064 0
5059 -5062 5064 0
5060 5064 0
5061 5064 0
-5057 5058 5063 5064 -5065 0
5057 -5058 -5063 5064 -5065 0
-5057 -5058 5065 0
-5057 -5063 5065 0
5057 5058 5065 0
5057 5063 5065 0
-5064 5065 0
5057 -5058 -5063 5064 -5066 0
-5057 -5058 -5063 -5064 -5066 0
-5057 5064 5066 0
5057 -5064 5066 0
5058 5066 0
5063 5066 0
-3801 3802 4149 4150 -5067 0
3801 -3802 -4149 4150 -5067 0
-3801 -3802 5067 0
-3801 -4149 5067 0
3801 3802 5067 0
3801 4149 5067 0
-4150 5067 0
3801 -3802 -4149 4150 -5068 0
-3801 -3802 -4149 -4150 -5068 0
-3801 4150 5068 0
3801 -4150 5068 0
3802 5068 0
4149 5068 0
223 -224 225 226 -5069 0
-223 224 225 -226 -5069 0
-223 -224 5069 0
-223 226 5069 0
223 224 5069 0
223 -226 5069 0
-225 5069 0
-223 224 225 -226 -5070 0
-223 -224 -225 -226 -5070 0
-224 225 5070 0
224 -225 5070 0
223 5070 0
226 5070 0
-4149 4150 5069 5070 -5071 0
4149 -4150 -5069 5070 -5071 0
-4149 -4150 5071 0
-4149 -5069 5071 0
4149 4150 5071 0
4149 5069 5071 0
-5070 5071 0
4149 -4150 -5069 5070 -5072 0
-4149 -4150 -5069 -5070 -5072 0
-4149 5070 5072 0
4149 -5070 5072 0
4150 5072 0
5069 5072 0
-4553 4554 3801 3802 -5073 0
4553 -4554 -3801 3802 -5073 0
-4553 -4554 5073 0
-4553 -3801 5073 0
4553 4554 5073 0
4553 3801 5073 0
-3802 5073 0
4553 -4554 -3801 3802 -5074 0
-4553 -4554 -3801 -3802 -5074 0
-4553 3802 5074 0
4553 -3802 5074 0
4554 5074 0
3801 5074 0
-5071 5072 5073 5074 -5075 0
5071 -5072 -5073 5074 -5075 0
-5071 -5072 5075 0
-5071 -5073 5075 0
5071 5072 5075 0
5071 5073 5075 0
-5074 5075 0
5071 -5072 -5073 5074 -5076 0
-5071 -5072 -5073 -5074 -5076 0
-5071 5074 5076 0
5071 -5074 5076 0
5072 5076 0
5073 5076 0
207 -208 5531 5532 -5077 0
-207 208 -5531 5532 -5077 0
-207 -208 5077 0
-207 5531 5077 0
207 208 5077 0
207 -5531 5077 0
-5532 5077 0
-207 208 -5531 5532 -5078 0
-207 -208 -5531 -5532 -5078 0
-208 5532 5078 0
208 -5532 5078 0
207 5078 0
5531 5078 0
-4553 4554 5533 5534 -5079 0
4553 -4554 -5533 5534 -5079 0
-4553 -4554 5079 0
-4553 -5533 5079 0
4553 4554 5079 0
4553 5533 5079 0
-5534 5079 0
4553 -4554 -5533 5534 -5080 0
-4553 -4554 -5533 -5534 -5080 0
-4553 5534 5080 0
4553 -5534 5080 0
4554 5080 0
5533 5080 0
-5077 5078 5079 5080 -5081 0
5077 -5078 -5079 5080 -5081 0
-5077 -5078 5081 0
-5077 -5079 5081 0
5077 5078 5081 0
5077 5079 5081 0
-5080 5081 0
5077 -5078 -5079 5080 -5082 0
-5077 -5078 -5079 -5080 -5082 0
-5077 5080 5082 0
5077 -5080 5082 0
5078 5082 0
5079 5082 0
-5517 5518 5521 5522 -5083 0
5517 -5518 -5521 5522 -5083 0
-5517 -5518 5083 0
-5517 -5521 5083 0
5517 5518 5083 0
5517 5521 5083 0
-5522 5083 0
5517 -5518 -5521 5522 -5084 0
-5517 -5518 -5521 -5522 -5084 0
-5517 5522 5084 0
5517 -5522 5084 0
5518 5084 0
5521 5084 0
-5525 5526 5529 5530 -5085 0
5525 -5526 -5529 5530 -5085 0
-5525 -5526 5085 0
-5525 -5529 5085 0
5525 5526 5085 0
5525 5529 5085 0
-5530 5085 0
5525 -5526 -5529 5530 -5086 0
-5525 -5526 -5529 -5530 -5086 0
-5525 5530 5086 0
5525 -5530 5086 0
5526 5086 0
5529 5086 0
-5083 5084 5085 5086 -5087 0
5083 -5084 -5085 5086 -5087 0
-5083 -5084 5087 0
-5083 -5085 5087 0
5083 5084 5087 0
5083 5085 5087 0
-5086 5087 0
5083 -5084 -5085 5086 -5088 0
-5083 -5084 -5085 -5086 -5088 0
-5083 5086 5088 0
5083 -5086 5088 0
5084 5088 0
5085 5088 0
215 -216 5535 5536 -5089 0
-215 216 -5535 5536 -5089 0
-215 -216 5089 0
-215 5535 5089 0
215 216 5089 0
215 -5535 5089 0
-5536 5089 0
-215 216 -5535 5536 -5090 0
-215 -216 -5535 -5536 -5090 0
-216 5536 5090 0
216 -5536 5090 0
215 5090 0
5535 5090 0
-4553 4554 4217 4218 -5091 0
4553 -4554 -4217 4218 -5091 0
-4553 -4554 5091 0
-4553 -4217 5091 0
4553 4554 5091 0
4553 4217 5091 0
-4218 5091 0
4553 -4554 -4217 4218 -5092 0
-4553 -4554 -4217 -4218 -5092 0
-4553 4218 5092 0
4553 -4218 5092 0
4554 5092 0
4217 5092 0
-5089 5090 5091 5092 -5093 0
5089 -5090 -5091 5092 -5093 0
-5089 -5090 5093 0
-5089 -5091 5093 0
5089 5090 5093 0
5089 5091 5093 0
-5092 5093 0
5089 -5090 -5091 5092 -5094 0
-5089 -5090 -5091 -5092 -5094 0
-5089 5092 5094 0
5089 -5092 5094 0
5090 5094 0
5091 5094 0
209 -210 5537 5538 -5095 0
-209 210 -5537 5538 -5095 0
-209 -210 5095 0
-209 5537 5095 0
209 210 5095 0
209 -5537 5095 0
-5538 5095 0
-209 210 -5537 5538 -5096 0
-209 -210 -5537 -5538 -5096 0
-210 5538 5096 0
210 -5538 5096 0
209 5096 0
5537 5096 0
215 -216 4553 4554 -5097 0
-215 216 -4553 4554 -5097 0
-215 -216 5097 0
-215 4553 5097 0
215 216 5097 0
215 -4553 5097 0
-4554 5097 0
-215 216 -4553 4554 -5098 0
-215 -216 -4553 -4554 -5098 0
-216 4554 5098 0
216 -4554 5098 0
215 5098 0
4553 5098 0
-5095 5096 5097 5098 -5099 0
5095 -5096 -5097 5098 -5099 0
-5095 -5096 5099 0
-5095 -5097 5099 0
5095 5096 5099 0
5095 5097 5099 0
-5098 5099 0
5095 -5096 -5097 5098 -5100 0
-5095 -5096 -5097 -5098 -5100 0
-5095 5098 5100 0
5095 -5098 5100 0
5096 5100 0
5097 5100 0
207 -208 5539 5540 -5101 0
-207 208 -5539 5540 -5101 0
-207 -208 5101 0
-207 5539 5101 0
207 208 5101 0
207 -5539 5101 0
-5540 5101 0
-207 208 -5539 5540 -5102 0
-207 -208 -5539 -5540 -5102 0
-208 5540 5102 0
208 -5540 5102 0
207 5102 0
5539 5102 0
215 -216 4553 4554 -5103 0
-215 216 -4553 4554 -5103 0
-215 -216 5103 0
-215 4553 5103 0
215 216 5103 0
215 -4553 5103 0
-4554 5103 0
-215 216 -4553 4554 -5104 0
-215 -216 -4553 -4554 -5104 0
-216 4554 5104 0
216 -4554 5104 0
215 5104 0
4553 5104 0
-5101 5102 5103 5104 -5105 0
5101 -5102 -5103 5104 -5105 0
-5101 -5102 5105 0
-5101 -5103 5105 0
5101 5102 5105 0
5101 5103 5105 0
-5104 5105 0
5101 -5102 -5103 5104 -5106 0
-5101 -5102 -5103 -5104 -5106 0
-5101 5104 5106 0
5101 -5104 5106 0
5102 5106 0
5103 5106 0
215 -216 5541 5542 -5107 0
-215 216 -5541 5542 -5107 0
-215 -216 5107 0
-215 5541 5107 0
215 216 5107 0
215 -5541 5107 0
-5542 5107 0
-215 216 -5541 5542 -5108 0
-215 -216 -5541 -5542 -5108 0
-216 5542 5108 0
216 -5542 5108 0
215 5108 0
5541 5108 0
-4553 4554 4217 4218 -5109 0
4553 -4554 -4217 4218 -5109 0
-4553 -4554 5109 0
-4553 -4217 5109 0
4553 4554 5109 0
4553 4217 5109 0
-4218 5109 0
4553 -4554 -4217 4218 -5110 0
-4553 -4554 -4217 -4218 -5110 0
-4553 4218 5110 0
4553 -4218 5110 0
4554 5110 0
4217 5110 0
-5107 5108 5109 5110 -5111 0
5107 -5108 -5109 5110 -5111 0
-5107 -5108 5111 0
-5107 -5109 5111 0
5107 5108 5111 0
5107 5109 5111 0
-5110 5111 0
5107 -5108 -5109 5110 -5112 0
-5107 -5108 -5109 -5110 -5112 0
-5107 5110 5112 0
5107 -5110 5112 0
5108 5112 0
5109 5112 0
213 -214 5543 5544 -5113 0
-213 214 -5543 5544 -5113 0
-213 -214 5113 0
-213 5543 5113 0
213 214 5113 0
213 -5543 5113 0
-5544 5113 0
-213 214 -5543 5544 -5114 0
-213 -214 -5543 -5544 -5114 0
-214 5544 5114 0
214 -5544 5114 0
213 5114 0
5543 5114 0
215 -216 4553 4554 -5115 0
-215 216 -4553 4554 -5115 0
-215 -216 5115 0
-215 4553 5115 0
215 216 5115 0
215 -4553 5115 0
-4554 5115 0
-215 216 -4553 4554 -5116 0
-215 -216 -4553 -4554 -5116 0
-216 4554 5116 0
216 -4554 5116 0
215 5116 0
4553 5116 0
-5113 5114 5115 5116 -5117 0
5113 -5114 -5115 5116 -5117 0
-5113 -5114 5117 0
-5113 -5115 5117 0
5113 5114 5117 0
5113 5115 5117 0
-5116 5117 0
5113 -5114 -5115 5116 -5118 0
-5113 -5114 -5115 -5116 -5118 0
-5113 5116 5118 0
5113 -5116 5118 0
5114 5118 0
5115 5118 0
213 -214 5545 5546 -5119 0
-213 214 -5545 5546 -5119 0
-213 -214 5119 0
-213 5545 5119 0
213 214 5119 0
213 -5545 5119 0
-5546 5119 0
-213 214 -5545 5546 -5120 0
-213 -214 -5545 -5546 -5120 0
-214 5546 5120 0
214 -5546 5120 0
213 5120 0
5545 5120 0
215 -216 4553 4554 -5121 0
-215 216 -4553 4554 -5121 0
-215 -216 5121 0
-215 4553 5121 0
215 216 5121 0
215 -4553 5121 0
-4554 5121 0
-215 216 -4553 4554 -5122 0
-215 -216 -4553 -4554 -5122 0
-216 4554 5122 0
216 -4554 5122 0
215 5122 0
4553 5122 0
-5119 5120 5121 5122 -5123 0
5119 -5120 -5121 5122 -5123 0
-5119 -5120 5123 0
-5119 -5121 5123 0
5119 5120 5123 0
5119 5121 5123 0
-5122 5123 0
5119 -5120 -5121 5122 -5124 0
-5119 -5120 -5121 -5122 -5124 0
-5119 5122 5124 0
5119 -5122 5124 0
5120 5124 0
5121 5124 0
97 -98 99 100 -5125 0
-97 98 99 -100 -5125 0
-97 -98 5125 0
-97 100 5125 0
97 98 5125 0
97 -100 5125 0
-99 5125 0
-97 98 99 -100 -5126 0
-97 -98 -99 -100 -5126 0
-98 99 5126 0
98 -99 5126 0
97 5126 0
100 5126 0
97 -98 99 100 -5127 0
-97 98 99 -100 -5127 0
-97 -98 5127 0
-97 100 5127 0
97 98 5127 0
97 -100 5127 0
-99 5127 0
-97 98 99 -100 -5128 0
-97 -98 -99 -100 -5128 0
-98 99 5128 0
98 -99 5128 0
97 5128 0
100 5128 0
97 -98 99 100 -5129 0
-97 98 99 -100 -5129 0
-97 -98 5129 0
-97 100 5129 0
97 98 5129 0
97 -100 5129 0
-99 5129 0
-97 98 99 -100 -5130 0
-97 -98 -99 -100 -5130 0
-98 99 5130 0
98 -99 5130 0
97 5130 0
100 5130 0
97 -98 99 100 -5131 0
-97 98 99 -100 -5131 0
-97 -98 5131 0
-97 100 5131 0
97 98 5131 0
97 -100 5131 0
-99 5131 0
-97 98 99 -100 -5132 0
-97 -98 -99 -100 -5132 0
-98 99 5132 0
98 -99 5132 0
97 5132 0
100 5132 0
33 -34 181 182 -5133 0
-33 34 181 -182 -5133 0
-33 -34 5133 0
-33 182 5133 0
33 34 5133 0
33 -182 5133 0
-181 5133 0
-33 34 181 -182 -5134 0
-33 -34 -181 -182 -5134 0
-34 181 5134 0
34 -181 5134 0
33 5134 0
182 5134 0
187 -188 189 190 -5135 0
-187 188 189 -190 -5135 0
-187 -188 5135 0
-187 190 5135 0
187 188 5135 0
187 -190 5135 0
-189 5135 0
-187 188 189 -190 -5136 0
-187 -188 -189 -190 -5136 0
-188 189 5136 0
188 -189 5136 0
187 5136 0
190 5136 0
89 -90 141 142 -5137 0
-89 90 141 -142 -5137 0
-89 -90 5137 0
-89 142 5137 0
89 90 5137 0
89 -142 5137 0
-141 5137 0
-89 90 141 -142 -5138 0
-89 -90 -141 -142 -5138 0
-90 141 5138 0
90 -141 5138 0
89 5138 0
142 5138 0
89 -90 3535 3536 -5139 0
-89 90 -3535 3536 -5139 0
-89 -90 5139 0
-89 3535 5139 0
89 90 5139 0
89 -3535 5139 0
-3536 5139 0
-89 90 -3535 3536 -5140 0
-89 -90 -3535 -3536 -5140 0
-90 3536 5140 0
90 -3536 5140 0
89 5140 0
3535 5140 0
89 -90 159 160 -5141 0
-89 90 159 -160 -5141 0
-89 -90 5141 0
-89 160 5141 0
89 90 5141 0
89 -160 5141 0
-159 5141 0
-89 90 159 -160 -5142 0
-89 -90 -159 -160 -5142 0
-90 159 5142 0
90 -159 5142 0
89 5142 0
160 5142 0
-5139 5140 5141 5142 -5143 0
5139 -5140 -5141 5142 -5143 0
-5139 -5140 5143 0
-5139 -5141 5143 0
5139 5140 5143 0
5139 5141 5143 0
-5142 5143 0
5139 -5140 -5141 5142 -5144 0
-5139 -5140 -5141 -5142 -5144 0
-5139 5142 5144 0
5139 -5142 5144 0
5140 5144 0
5141 5144 0
-5137 5138 5143 5144 -5145 0
5137 -5138 -5143 5144 -5145 0
-5137 -5138 5145 0
-5137 -5143 5145 0
5137 5138 5145 0
5137 5143 5145 0
-5144 5145 0
5137 -5138 -5143 5144 -5146 0
-5137 -5138 -5143 -5144 -5146 0
-5137 5144 5146 0
5137 -5144 5146 0
5138 5146 0
5143 5146 0
-5161 5162 5163 5164 -5147 0
5161 -5162 -5163 5164 -5147 0
-5161 -5162 5147 0
-5161 -5163 5147 0
5161 5162 5147 0
5161 5163 5147 0
-5164 5147 0
5161 -5162 -5163 5164 -5148 0
-5161 -5162 -5163 -5164 -5148 0
-5161 5164 5148 0
5161 -5164 5148 0
5162 5148 0
5163 5148 0
-5165 5166 5167 5168 -5149 0
5165 -5166 -5167 5168 -5149 0
-5165 -5166 5149 0
-5165 -5167 5149 0
5165 5166 5149 0
5165 5167 5149 0
-5168 5149 0
5165 -5166 -5167 5168 -5150 0
-5165 -5166 -5167 -5168 -5150 0
-5165 5168 5150 0
5165 -5168 5150 0
5166 5150 0
5167 5150 0
-5169 5170 5171 5172 -5151 0
5169 -5170 -5171 5172 -5151 0
-5169 -5170 5151 0
-5169 -5171 5151 0
5169 5170 5151 0
5169 5171 5151 0
-5172 5151 0
5169 -5170 -5171 5172 -5152 0
-5169 -5170 -5171 -5172 -5152 0
-5169 5172 5152 0
5169 -5172 5152 0
5170 5152 0
5171 5152 0
-5173 5174 5175 5176 -5153 0
5173 -5174 -5175 5176 -5153 0
-5173 -5174 5153 0
-5173 -5175 5153 0
5173 5174 5153 0
5173 5175 5153 0
-5176 5153 0
5173 -5174 -5175 5176 -5154 0
-5173 -5174 -5175 -5176 -5154 0
-5173 5176 5154 0
5173 -5176 5154 0
5174 5154 0
5175 5154 0
23 -24 59 60 -5155 0
-23 24 59 -60 -5155 0
-23 -24 5155 0
-23 60 5155 0
23 24 5155 0
23 -60 5155 0
-59 5155 0
-23 24 59 -60 -5156 0
-23 -24 -59 -60 -5156 0
-24 59 5156 0
24 -59 5156 0
23 5156 0
60 5156 0
-5177 5178 5179 5180 -5157 0
5177 -5178 -5179 5180 -5157 0
-5177 -5178 5157 0
-5177 -5179 5157 0
5177 5178 5157 0
5177 5179 5157 0
-5180 5157 0
5177 -5178 -5179 5180 -5158 0
-5177 -5178 -5179 -5180 -5158 0
-5177 5180 5158 0
5177 -5180 5158 0
5178 5158 0
5179 5158 0
19 -20 59 60 -5159 0
-19 20 59 -60 -5159 0
-19 -20 5159 0
-19 60 5159 0
19 20 5159 0
19 -60 5159 0
-59 5159 0
-19 20 59 -60 -5160 0
-19 -20 -59 -60 -5160 0
-20 59 5160 0
20 -59 5160 0
19 5160 0
60 5160 0
-5961 5962 5963 5964 -5161 0
5961 -5962 -5963 5964 -5161 0
-5961 -5962 5161 0
-5961 -5963 5161 0
5961 5962 5161 0
5961 5963 5161 0
-5964 5161 0
5961 -5962 -5963 5964 -5162 0
-5961 -5962 -5963 -5964 -5162 0
-5961 5964 5162 0
5961 -5964 5162 0
5962 5162 0
5963 5162 0
203 -204 5965 5966 -5163 0
-203 204 -5965 5966 -5163 0
-203 -204 5163 0
-203 5965 5163 0
203 204 5163 0
203 -5965 5163 0
-5966 5163 0
-203 204 -5965 5966 -5164 0
-203 -204 -5965 -5966 -5164 0
-204 5966 5164 0
204 -5966 5164 0
203 5164 0
5965 5164 0
-5945 5946 5949 5950 -5165 0
5945 -5946 -5949 5950 -5165 0
-5945 -5946 5165 0
-5945 -5949 5165 0
5945 5946 5165 0
5945 5949 5165 0
-5950 5165 0
5945 -5946 -5949 5950 -5166 0
-5945 -5946 -5949 -5950 -5166 0
-5945 5950 5166 0
5945 -5950 5166 0
5946 5166 0
5949 5166 0
-5955 5956 5959 5960 -5167 0
5955 -5956 -5959 5960 -5167 0
-5955 -5956 5167 0
-5955 -5959 5167 0
5955 5956 5167 0
5955 5959 5167 0
-5960 5167 0
5955 -5956 -5959 5960 -5168 0
-5955 -5956 -5959 -5960 -5168 0
-5955 5960 5168 0
5955 -5960 5168 0
5956 5168 0
5959 5168 0
-5967 5968 5969 5970 -5169 0
5967 -5968 -5969 5970 -5169 0
-5967 -5968 5169 0
-5967 -5969 5169 0
5967 5968 5169 0
5967 5969 5169 0
-5970 5169 0
5967 -5968 -5969 5970 -5170 0
-5967 -5968 -5969 -5970 -5170 0
-5967 5970 5170 0
5967 -5970 5170 0
5968 5170 0
5969 5170 0
203 -204 5971 5972 -5171 0
-203 204 -5971 5972 -5171 0
-203 -204 5171 0
-203 5971 5171 0
203 204 5171 0
203 -5971 5171 0
-5972 5171 0
-203 204 -5971 5972 -5172 0
-203 -204 -5971 -5972 -5172 0
-204 5972 5172 0
204 -5972 5172 0
203 5172 0
5971 5172 0
89 -90 5973 5974 -5173 0
-89 90 -5973 5974 -5173 0
-89 -90 5173 0
-89 5973 5173 0
89 90 5173 0
89 -5973 5173 0
-5974 5173 0
-89 90 -5973 5974 -5174 0
-89 -90 -5973 -5974 -5174 0
-90 5974 5174 0
90 -5974 5174 0
89 5174 0
5973 5174 0
197 -198 249 250 -5175 0
-197 198 249 -250 -5175 0
-197 -198 5175 0
-197 250 5175 0
197 198 5175 0
197 -250 5175 0
-249 5175 0
-197 198 249 -250 -5176 0
-197 -198 -249 -250 -5176 0
-198 249 5176 0
198 -249 5176 0
197 5176 0
250 5176 0
-5977 5978 5979 5980 -5177 0
5977 -5978 -5979 5980 -5177 0
-5977 -5978 5177 0
-5977 -5979 5177 0
5977 5978 5177 0
5977 5979 5177 0
-5980 5177 0
5977 -5978 -5979 5980 -5178 0
-5977 -5978 -5979 -5980 -5178 0
-5977 5980 5178 0
5977 -5980 5178 0
5978 5178 0
5979 5178 0
17 -18 249 250 -5179 0
-17 18 249 -250 -5179 0
-17 -18 5179 0
-17 250 5179 0
17 18 5179 0
17 -250 5179 0
-249 5179 0
-17 18 249 -250 -5180 0
-17 -18 -249 -250 -5180 0
-18 249 5180 0
18 -249 5180 0
17 5180 0
250 5180 0
97 -98 99 100 -5181 0
-97 98 99 -100 -5181 0
-97 -98 5181 0
-97 100 5181 0
97 98 5181 0
97 -100 5181 0
-99 5181 0
-97 98 99 -100 -5182 0
-97 -98 -99 -100 -5182 0
-98 99 5182 0
98 -99 5182 0
97 5182 0
100 5182 0
101 -102 103 104 -5183 0
-101 102 103 -104 -5183 0
-101 -102 5183 0
-101 104 5183 0
101 102 5183 0
101 -104 5183 0
-103 5183 0
-101 102 103 -104 -5184 0
-101 -102 -103 -104 -5184 0
-102 103 5184 0
102 -103 5184 0
101 5184 0
104 5184 0
97 -98 99 100 -5185 0
-97 98 99 -100 -5185 0
-97 -98 5185 0
-97 100 5185 0
97 98 5185 0
97 -100 5185 0
-99 5185 0
-97 98 99 -100 -5186 0
-97 -98 -99 -100 -5186 0
-98 99 5186 0
98 -99 5186 0
97 5186 0
100 5186 0
101 -102 103 104 -5187 0
-101 102 103 -104 -5187 0
-101 -102 5187 0
-101 104 5187 0
101 102 5187 0
101 -104 5187 0
-103 5187 0
-101 102 103 -104 -5188 0
-101 -102 -103 -104 -5188 0
-102 103 5188 0
102 -103 5188 0
101 5188 0
104 5188 0
231 -232 257 258 -5189 0
-231 232 257 -258 -5189 0
-231 -232 5189 0
-231 258 5189 0
231 232 5189 0
231 -258 5189 0
-257 5189 0
-231 232 257 -258 -5190 0
-231 -232 -257 -258 -5190 0
-232 257 5190 0
232 -257 5190 0
231 5190 0
258 5190 0
261 -262 3535 3536 -5191 0
-261 262 -3535 3536 -5191 0
-261 -262 5191 0
-261 3535 5191 0
261 262 5191 0
261 -3535 5191 0
-3536 5191 0
-261 262 -3535 3536 -5192 0
-261 -262 -3535 -3536 -5192 0
-262 3536 5192 0
262 -3536 5192 0
261 5192 0
3535 5192 0
-5189 5190 5191 5192 -5193 0
5189 -5190 -5191 5192 -5193 0
-5189 -5190 5193 0
-5189 -5191 5193 0
5189 5190 5193 0
5189 5191 5193 0
-5192 5193 0
5189 -5190 -5191 5192 -5194 0
-5189 -5190 -5191 -5192 -5194 0
-5189 5192 5194 0
5189 -5192 5194 0
5190 5194 0
5191 5194 0
-3531 3532 3547 3548 -5195 0
3531 -3532 -3547 3548 -5195 0
-3531 -3532 5195 0
-3531 -3547 5195 0
3531 3532 5195 0
3531 3547 5195 0
-3548 5195 0
3531 -3532 -3547 3548 -5196 0
-3531 -3532 -3547 -3548 -5196 0
-3531 3548 5196 0
3531 -3548 5196 0
3532 5196 0
3547 5196 0
-3553 3554 5145 5146 -5197 0
3553 -3554 -5145 5146 -5197 0
-3553 -3554 5197 0
-3553 -5145 5197 0
3553 3554 5197 0
3553 5145 5197 0
-5146 5197 0
3553 -3554 -5145 5146 -5198 0
-3553 -3554 -5145 -5146 -5198 0
-3553 5146 5198 0
3553 -5146 5198 0
3554 5198 0
5145 5198 0
-5195 5196 5197 5198 -5199 0
5195 -5196 -5197 5198 -5199 0
-5195 -5196 5199 0
-5195 -5197 5199 0
5195 5196 5199 0
5195 5197 5199 0
-5198 5199 0
5195 -5196 -5197 5198 -5200 0
-5195 -5196 -5197 -5198 -5200 0
-5195 5198 5200 0
5195 -5198 5200 0
5196 5200 0
5197 5200 0
-5193 5194 5199 5200 -5201 0
5193 -5194 -5199 5200 -5201 0
-5193 -5194 5201 0
-5193 -5199 5201 0
5193 5194 5201 0
5193 5199 5201 0
-5200 5201 0
5193 -5194 -5199 5200 -5202 0
-5193 -5194 -5199 -5200 -5202 0
-5193 5200 5202 0
5193 -5200 5202 0
5194 5202 0
5199 5202 0
231 -232 257 258 -5203 0
-231 232 257 -258 -5203 0
-231 -232 5203 0
-231 258 5203 0
231 232 5203 0
231 -258 5203 0
-257 5203 0
-231 232 257 -258 -5204 0
-231 -232 -257 -258 -5204 0
-232 257 5204 0
232 -257 5204 0
231 5204 0
258 5204 0
261 -262 3535 3536 -5205 0
-261 262 -3535 3536 -5205 0
-261 -262 5205 0
-261 3535 5205 0
261 262 5205 0
261 -3535 5205 0
-3536 5205 0
-261 262 -3535 3536 -5206 0
-261 -262 -3535 -3536 -5206 0
-262 3536 5206 0
262 -3536 5206 0
261 5206 0
3535 5206 0
-5203 5204 5205 5206 -5207 0
5203 -5204 -5205 5206 -5207 0
-5203 -5204 5207 0
-5203 -5205 5207 0
5203 5204 5207 0
5203 5205 5207 0
-5206 5207 0
5203 -5204 -5205 5206 -5208 0
-5203 -5204 -5205 -5206 -5208 0
-5203 5206 5208 0
5203 -5206 5208 0
5204 5208 0
5205 5208 0
-3375 3376 3547 3548 -5209 0
3375 -3376 -3547 3548 -5209 0
-3375 -3376 5209 0
-3375 -3547 5209 0
3375 3376 5209 0
3375 3547 5209 0
-3548 5209 0
3375 -3376 -3547 3548 -5210 0
-3375 -3376 -3547 -3548 -5210 0
-3375 3548 5210 0
3375 -3548 5210 0
3376 5210 0
3547 5210 0
-3553 3554 5145 5146 -5211 0
3553 -3554 -5145 5146 -5211 0
-3553 -3554 5211 0
-3553 -5145 5211 0
3553 3554 5211 0
3553 5145 5211 0
-5146 5211 0
3553 -3554 -5145 5146 -5212 0
-3553 -3554 -5145 -5146 -5212 0
-3553 5146 5212 0
3553 -5146 5212 0
3554 5212 0
5145 5212 0
-5209 5210 5211 5212 -5213 0
5209 -5210 -5211 5212 -5213 0
-5209 -5210 5213 0
-5209 -5211 5213 0
5209 5210 5213 0
5209 5211 5213 0
-5212 5213 0
5209 -5210 -5211 5212 -5214 0
-5209 -5210 -5211 -5212 -5214 0
-5209 5212 5214 0
5209 -5212 5214 0
5210 5214 0
5211 5214 0
-5207 5208 5213 5214 -5215 0
5207 -5208 -5213 5214 -5215 0
-5207 -5208 5215 0
-5207 -5213 5215 0
5207 5208 5215 0
5207 5213 5215 0
-5214 5215 0
5207 -5208 -5213 5214 -5216 0
-5207 -5208 -5213 -5214 -5216 0
-5207 5214 5216 0
5207 -5214 5216 0
5208 5216 0
5213 5216 0
37 -38 257 258 -5217 0
-37 38 257 -258 -5217 0
-37 -38 5217 0
-37 258 5217 0
37 38 5217 0
37 -258 5217 0
-257 5217 0
-37 38 257 -258 -5218 0
-37 -38 -257 -258 -5218 0
-38 257 5218 0
38 -257 5218 0
37 5218 0
258 5218 0
261 -262 3535 3536 -5219 0
-261 262 -3535 3536 -5219 0
-261 -262 5219 0
-261 3535 5219 0
261 262 5219 0
261 -3535 5219 0
-3536 5219 0
-261 262 -3535 3536 -5220 0
-261 -262 -3535 -3536 -5220 0
-262 3536 5220 0
262 -3536 5220 0
261 5220 0
3535 5220 0
-5217 5218 5219 5220 -5221 0
5217 -5218 -5219 5220 -5221 0
-5217 -5218 5221 0
-5217 -5219 5221 0
5217 5218 5221 0
5217 5219 5221 0
-5220 5221 0
5217 -5218 -5219 5220 -5222 0
-5217 -5218 -5219 -5220 -5222 0
-5217 5220 5222 0
5217 -5220 5222 0
5218 5222 0
5219 5222 0
-3531 3532 3547 3548 -5223 0
3531 -3532 -3547 3548 -5223 0
-3531 -3532 5223 0
-3531 -3547 5223 0
3531 3532 5223 0
3531 3547 5223 0
-3548 5223 0
3531 -3532 -3547 3548 -5224 0
-3531 -3532 -3547 -3548 -5224 0
-3531 3548 5224 0
3531 -3548 5224 0
3532 5224 0
3547 5224 0
-3553 3554 5145 5146 -5225 0
3553 -3554 -5145 5146 -5225 0
-3553 -3554 5225 0
-3553 -5145 5225 0
3553 3554 5225 0
3553 5145 5225 0
-5146 5225 0
3553 -3554 -5145 5146 -5226 0
-3553 -3554 -5145 -5146 -5226 0
-3553 5146 5226 0
3553 -5146 5226 0
3554 5226 0
5145 5226 0
-5223 5224 5225 5226 -5227 0
5223 -5224 -5225 5226 -5227 0
-5223 -5224 5227 0
-5223 -5225 5227 0
5223 5224 5227 0
5223 5225 5227 0
-5226 5227 0
5223 -5224 -5225 5226 -5228 0
-5223 -5224 -5225 -5226 -5228 0
-5223 5226 5228 0
5223 -5226 5228 0
5224 5228 0
5225 5228 0
37 -38 257 258 -5229 0
-37 38 257 -258 -5229 0
-37 -38 5229 0
-37 258 5229 0
37 38 5229 0
37 -258 5229 0
-257 5229 0
-37 38 257 -258 -5230 0
-37 -38 -257 -258 -5230 0
-38 257 5230 0
38 -257 5230 0
37 5230 0
258 5230 0
261 -262 3535 3536 -5231 0
-261 262 -3535 3536 -5231 0
-261 -262 5231 0
-261 3535 5231 0
261 262 5231 0
261 -3535 5231 0
-3536 5231 0
-261 262 -3535 3536 -5232 0
-261 -262 -3535 -3536 -5232 0
-262 3536 5232 0
262 -3536 5232 0
261 5232 0
3535 5232 0
-5229 5230 5231 5232 -5233 0
5229 -5230 -5231 5232 -5233 0
-5229 -5230 5233 0
-5229 -5231 5233 0
5229 5230 5233 0
5229 5231 5233 0
-5232 5233 0
5229 -5230 -5231 5232 -5234 0
-5229 -5230 -5231 -5232 -5234 0
-5229 5232 5234 0
5229 -5232 5234 0
5230 5234 0
5231 5234 0
-3375 3376 3547 3548 -5235 0
3375 -3376 -3547 3548 -5235 0
-3375 -3376 5235 0
-3375 -3547 5235 0
3375 3376 5235 0
3375 3547 5235 0
-3548 5235 0
3375 -3376 -3547 3548 -5236 0
-3375 -3376 -3547 -3548 -5236 0
-3375 3548 5236 0
3375 -3548 5236 0
3376 5236 0
3547 5236 0
-3553 3554 5145 5146 -5237 0
3553 -3554 -5145 5146 -5237 0
-3553 -3554 5237 0
-3553 -5145 5237 0
3553 3554 5237 0
3553 5145 5237 0
-5146 5237 0
3553 -3554 -5145 5146 -5238 0
-3553 -3554 -5145 -5146 -5238 0
-3553 5146 5238 0
3553 -5146 5238 0
3554 5238 0
5145 5238 0
-5235 5236 5237 5238 -5239 0
5235 -5236 -5237 5238 -5239 0
-5235 -5236 5239 0
-5235 -5237 5239 0
5235 5236 5239 0
5235 5237 5239 0
-5238 5239 0
5235 -5236 -5237 5238 -5240 0
-5235 -5236 -5237 -5238 -5240 0
-5235 5238 5240 0
5235 -5238 5240 0
5236 5240 0
5237 5240 0
-5233 5234 5239 5240 -5241 0
5233 -5234 -5239 5240 -5241 0
-5233 -5234 5241 0
-5233 -5239 5241 0
5233 5234 5241 0
5233 5239 5241 0
-5240 5241 0
5233 -5234 -5239 5240 -5242 0
-5233 -5234 -5239 -5240 -5242 0
-5233 5240 5242 0
5233 -5240 5242 0
5234 5242 0
5239 5242 0
199 -200 231 232 -5243 0
-199 200 231 -232 -5243 0
-199 -200 5243 0
-199 232 5243 0
199 200 5243 0
199 -232 5243 0
-231 5243 0
-199 200 231 -232 -5244 0
-199 -200 -231 -232 -5244 0
-200 231 5244 0
200 -231 5244 0
199 5244 0
232 5244 0
261 -262 3535 3536 -5245 0
-261 262 -3535 3536 -5245 0
-261 -262 5245 0
-261 3535 5245 0
261 262 5245 0
261 -3535 5245 0
-3536 5245 0
-261 262 -3535 3536 -5246 0
-261 -262 -3535 -3536 -5246 0
-262 3536 5246 0
262 -3536 5246 0
261 5246 0
3535 5246 0
-5243 5244 5245 5246 -5247 0
5243 -5244 -5245 5246 -5247 0
-5243 -5244 5247 0
-5243 -5245 5247 0
5243 5244 5247 0
5243 5245 5247 0
-5246 5247 0
5243 -5244 -5245 5246 -5248 0
-5243 -5244 -5245 -5246 -5248 0
-5243 5246 5248 0
5243 -5246 5248 0
5244 5248 0
5245 5248 0
-3531 3532 3547 3548 -5249 0
3531 -3532 -3547 3548 -5249 0
-3531 -3532 5249 0
-3531 -3547 5249 0
3531 3532 5249 0
3531 3547 5249 0
-3548 5249 0
3531 -3532 -3547 3548 -5250 0
-3531 -3532 -3547 -3548 -5250 0
-3531 3548 5250 0
3531 -3548 5250 0
3532 5250 0
3547 5250 0
-5145 5146 5249 5250 -5251 0
5145 -5146 -5249 5250 -5251 0
-5145 -5146 5251 0
-5145 -5249 5251 0
5145 5146 5251 0
5145 5249 5251 0
-5250 5251 0
5145 -5146 -5249 5250 -5252 0
-5145 -5146 -5249 -5250 -5252 0
-5145 5250 5252 0
5145 -5250 5252 0
5146 5252 0
5249 5252 0
-5247 5248 5251 5252 -5253 0
5247 -5248 -5251 5252 -5253 0
-5247 -5248 5253 0
-5247 -5251 5253 0
5247 5248 5253 0
5247 5251 5253 0
-5252 5253 0
5247 -5248 -5251 5252 -5254 0
-5247 -5248 -5251 -5252 -5254 0
-5247 5252 5254 0
5247 -5252 5254 0
5248 5254 0
5251 5254 0
199 -200 231 232 -5255 0
-199 200 231 -232 -5255 0
-199 -200 5255 0
-199 232 5255 0
199 200 5255 0
199 -232 5255 0
-231 5255 0
-199 200 231 -232 -5256 0
-199 -200 -231 -232 -5256 0
-200 231 5256 0
200 -231 5256 0
199 5256 0
232 5256 0
261 -262 3535 3536 -5257 0
-261 262 -3535 3536 -5257 0
-261 -262 5257 0
-261 3535 5257 0
261 262 5257 0
261 -3535 5257 0
-3536 5257 0
-261 262 -3535 3536 -5258 0
-261 -262 -3535 -3536 -5258 0
-262 3536 5258 0
262 -3536 5258 0
261 5258 0
3535 5258 0
-5255 5256 5257 5258 -5259 0
5255 -5256 -5257 5258 -5259 0
-5255 -5256 5259 0
-5255 -5257 5259 0
5255 5256 5259 0
5255 5257 5259 0
-5258 5259 0
5255 -5256 -5257 5258 -5260 0
-5255 -5256 -5257 -5258 -5260 0
-5255 5258 5260 0
5255 -5258 5260 0
5256 5260 0
5257 5260 0
-3375 3376 3547 3548 -5261 0
3375 -3376 -3547 3548 -5261 0
-3375 -3376 5261 0
-3375 -3547 5261 0
3375 3376 5261 0
3375 3547 5261 0
-3548 5261 0
3375 -3376 -3547 3548 -5262 0
-3375 -3376 -3547 -3548 -5262 0
-3375 3548 5262 0
3375 -3548 5262 0
3376 5262 0
3547 5262 0
-5145 5146 5261 5262 -5263 0
5145 -5146 -5261 5262 -5263 0
-5145 -5146 5263 0
-5145 -5261 5263 0
5145 5146 5263 0
5145 5261 5263 0
-5262 5263 0
5145 -5146 -5261 5262 -5264 0
-5145 -5146 -5261 -5262 -5264 0
-5145 5262 5264 0
5145 -5262 5264 0
5146 5264 0
5261 5264 0
37 -38 199 200 -5265 0
-37 38 199 -200 -5265 0
-37 -38 5265 0
-37 200 5265 0
37 38 5265 0
37 -200 5265 0
-199 5265 0
-37 38 199 -200 -5266 0
-37 -38 -199 -200 -5266 0
-38 199 5266 0
38 -199 5266 0
37 5266 0
200 5266 0
261 -262 3535 3536 -5267 0
-261 262 -3535 3536 -5267 0
-261 -262 5267 0
-261 3535 5267 0
261 262 5267 0
261 -3535 5267 0
-3536 5267 0
-261 262 -3535 3536 -5268 0
-261 -262 -3535 -3536 -5268 0
-262 3536 5268 0
262 -3536 5268 0
261 5268 0
3535 5268 0
-5265 5266 5267 5268 -5269 0
5265 -5266 -5267 5268 -5269 0
-5265 -5266 5269 0
-5265 -5267 5269 0
5265 5266 5269 0
5265 5267 5269 0
-5268 5269 0
5265 -5266 -5267 5268 -5270 0
-5265 -5266 -5267 -5268 -5270 0
-5265 5268 5270 0
5265 -5268 5270 0
5266 5270 0
5267 5270 0
-3531 3532 3547 3548 -5271 0
3531 -3532 -3547 3548 -5271 0
-3531 -3532 5271 0
-3531 -3547 5271 0
3531 3532 5271 0
3531 3547 5271 0
-3548 5271 0
3531 -3532 -3547 3548 -5272 0
-3531 -3532 -3547 -3548 -5272 0
-3531 3548 5272 0
3531 -3548 5272 0
3532 5272 0
3547 5272 0
-5145 5146 5271 5272 -5273 0
5145 -5146 -5271 5272 -5273 0
-5145 -5146 5273 0
-5145 -5271 5273 0
5145 5146 5273 0
5145 5271 5273 0
-5272 5273 0
5145 -5146 -5271 5272 -5274 0
-5145 -5146 -5271 -5272 -5274 0
-5145 5272 5274 0
5145 -5272 5274 0
5146 5274 0
5271 5274 0
-5269 5270 5273 5274 -5275 0
5269 -5270 -5273 5274 -5275 0
-5269 -5270 5275 0
-5269 -5273 5275 0
5269 5270 5275 0
5269 5273 5275 0
-5274 5275 0
5269 -5270 -5273 5274 -5276 0
-5269 -5270 -5273 -5274 -5276 0
-5269 5274 5276 0
5269 -5274 5276 0
5270 5276 0
5273 5276 0
37 -38 199 200 -5277 0
-37 38 199 -200 -5277 0
-37 -38 5277 0
-37 200 5277 0
37 38 5277 0
37 -200 5277 0
-199 5277 0
-37 38 199 -200 -5278 0
-37 -38 -199 -200 -5278 0
-38 199 5278 0
38 -199 5278 0
37 5278 0
200 5278 0
261 -262 3535 3536 -5279 0
-261 262 -3535 3536 -5279 0
-261 -262 5279 0
-261 3535 5279 0
261 262 5279 0
261 -3535 5279 0
-3536 5279 0
-261 262 -3535 3536 -5280 0
-261 -262 -3535 -3536 -5280 0
-262 3536 5280 0
262 -3536 5280 0
261 5280 0
3535 5280 0
-5277 5278 5279 5280 -5281 0
5277 -5278 -5279 5280 -5281 0
-5277 -5278 5281 0
-5277 -5279 5281 0
5277 5278 5281 0
5277 5279 5281 0
-5280 5281 0
5277 -5278 -5279 5280 -5282 0
-5277 -5278 -5279 -5280 -5282 0
-5277 5280 5282 0
5277 -5280 5282 0
5278 5282 0
5279 5282 0
-3375 3376 3547 3548 -5283 0
3375 -3376 -3547 3548 -5283 0
-3375 -3376 5283 0
-3375 -3547 5283 0
3375 3376 5283 0
3375 3547 5283 0
-3548 5283 0
3375 -3376 -3547 3548 -5284 0
-3375 -3376 -3547 -3548 -5284 0
-3375 3548 5284 0
3375 -3548 5284 0
3376 5284 0
3547 5284 0
-5145 5146 5283 5284 -5285 0
5145 -5146 -5283 5284 -5285 0
-5145 -5146 5285 0
-5145 -5283 5285 0
5145 5146 5285 0
5145 5283 5285 0
-5284 5285 0
5145 -5146 -5283 5284 -5286 0
-5145 -5146 -5283 -5284 -5286 0
-5145 5284 5286 0
5145 -5284 5286 0
5146 5286 0
5283 5286 0
-5281 5282 5285 5286 -5287 0
5281 -5282 -5285 5286 -5287 0
-5281 -5282 5287 0
-5281 -5285 5287 0
5281 5282 5287 0
5281 5285 5287 0
-5286 5287 0
5281 -5282 -5285 5286 -5288 0
-5281 -5282 -5285 -5286 -5288 0
-5281 5286 5288 0
5281 -5286 5288 0
5282 5288 0
5285 5288 0
197 -198 257 258 -5289 0
-197 198 257 -258 -5289 0
-197 -198 5289 0
-197 258 5289 0
197 198 5289 0
197 -258 5289 0
-257 5289 0
-197 198 257 -258 -5290 0
-197 -198 -257 -258 -5290 0
-198 257 5290 0
198 -257 5290 0
197 5290 0
258 5290 0
261 -262 3535 3536 -5291 0
-261 262 -3535 3536 -5291 0
-261 -262 5291 0
-261 3535 5291 0
261 262 5291 0
261 -3535 5291 0
-3536 5291 0
-261 262 -3535 3536 -5292 0
-261 -262 -3535 -3536 -5292 0
-262 3536 5292 0
262 -3536 5292 0
261 5292 0
3535 5292 0
-5289 5290 5291 5292 -5293 0
5289 -5290 -5291 5292 -5293 0
-5289 -5290 5293 0
-5289 -5291 5293 0
5289 5290 5293 0
5289 5291 5293 0
-5292 5293 0
5289 -5290 -5291 5292 -5294 0
-5289 -5290 -5291 -5292 -5294 0
-5289 5292 5294 0
5289 -5292 5294 0
5290 5294 0
5291 5294 0
-3531 3532 3547 3548 -5295 0
3531 -3532 -3547 3548 -5295 0
-3531 -3532 5295 0
-3531 -3547 5295 0
3531 3532 5295 0
3531 3547 5295 0
-3548 5295 0
3531 -3532 -3547 3548 -5296 0
-3531 -3532 -3547 -3548 -5296 0
-3531 3548 5296 0
3531 -3548 5296 0
3532 5296 0
3547 5296 0
-3553 3554 5295 5296 -5297 0
3553 -3554 -5295 5296 -5297 0
-3553 -3554 5297 0
-3553 -5295 5297 0
3553 3554 5297 0
3553 5295 5297 0
-5296 5297 0
3553 -3554 -5295 5296 -5298 0
-3553 -3554 -5295 -5296 -5298 0
-3553 5296 5298 0
3553 -5296 5298 0
3554 5298 0
5295 5298 0
197 -198 257 258 -5299 0
-197 198 257 -258 -5299 0
-197 -198 5299 0
-197 258 5299 0
197 198 5299 0
197 -258 5299 0
-257 5299 0
-197 198 257 -258 -5300 0
-197 -198 -257 -258 -5300 0
-198 257 5300 0
198 -257 5300 0
197 5300 0
258 5300 0
261 -262 3535 3536 -5301 0
-261 262 -3535 3536 -5301 0
-261 -262 5301 0
-261 3535 5301 0
261 262 5301 0
261 -3535 5301 0
-3536 5301 0
-261 262 -3535 3536 -5302 0
-261 -262 -3535 -3536 -5302 0
-262 3536 5302 0
262 -3536 5302 0
261 5302 0
3535 5302 0
-5299 5300 5301 5302 -5303 0
5299 -5300 -5301 5302 -5303 0
-5299 -5300 5303 0
-5299 -5301 5303 0
5299 5300 5303 0
5299 5301 5303 0
-5302 5303 0
5299 -5300 -5301 5302 -5304 0
-5299 -5300 -5301 -5302 -5304 0
-5299 5302 5304 0
5299 -5302 5304 0
5300 5304 0
5301 5304 0
-3375 3376 3547 3548 -5305 0
3375 -3376 -3547 3548 -5305 0
-3375 -3376 5305 0
-3375 -3547 5305 0
3375 3376 5305 0
3375 3547 5305 0
-3548 5305 0
3375 -3376 -3547 3548 -5306 0
-3375 -3376 -3547 -3548 -5306 0
-3375 3548 5306 0
3375 -3548 5306 0
3376 5306 0
3547 5306 0
-3553 3554 5305 5306 -5307 0
3553 -3554 -5305 5306 -5307 0
-3553 -3554 5307 0
-3553 -5305 5307 0
3553 3554 5307 0
3553 5305 5307 0
-5306 5307 0
3553 -3554 -5305 5306 -5308 0
-3553 -3554 -5305 -5306 -5308 0
-3553 5306 5308 0
3553 -5306 5308 0
3554 5308 0
5305 5308 0
-5303 5304 5307 5308 -5309 0
5303 -5304 -5307 5308 -5309 0
-5303 -5304 5309 0
-5303 -5307 5309 0
5303 5304 5309 0
5303 5307 5309 0
-5308 5309 0
5303 -5304 -5307 5308 -5310 0
-5303 -5304 -5307 -5308 -5310 0
-5303 5308 5310 0
5303 -5308 5310 0
5304 5310 0
5307 5310 0
257 -258 261 262 -5311 0
-257 258 261 -262 -5311 0
-257 -258 5311 0
-257 262 5311 0
257 258 5311 0
257 -262 5311 0
-261 5311 0
-257 258 261 -262 -5312 0
-257 -258 -261 -262 -5312 0
-258 261 5312 0
258 -261 5312 0
257 5312 0
262 5312 0
-3535 3536 5311 5312 -5313 0
3535 -3536 -5311 5312 -5313 0
-3535 -3536 5313 0
-3535 -5311 5313 0
3535 3536 5313 0
3535 5311 5313 0
-5312 5313 0
3535 -3536 -5311 5312 -5314 0
-3535 -3536 -5311 -5312 -5314 0
-3535 5312 5314 0
3535 -5312 5314 0
3536 5314 0
5311 5314 0
-4215 4216 3547 3548 -5315 0
4215 -4216 -3547 3548 -5315 0
-4215 -4216 5315 0
-4215 -3547 5315 0
4215 4216 5315 0
4215 3547 5315 0
-3548 5315 0
4215 -4216 -3547 3548 -5316 0
-4215 -4216 -3547 -3548 -5316 0
-4215 3548 5316 0
4215 -3548 5316 0
4216 5316 0
3547 5316 0
-3553 3554 5315 5316 -5317 0
3553 -3554 -5315 5316 -5317 0
-3553 -3554 5317 0
-3553 -5315 5317 0
3553 3554 5317 0
3553 5315 5317 0
-5316 5317 0
3553 -3554 -5315 5316 -5318 0
-3553 -3554 -5315 -5316 -5318 0
-3553 5316 5318 0
3553 -5316 5318 0
3554 5318 0
5315 5318 0
-5313 5314 5317 5318 -5319 0
5313 -5314 -5317 5318 -5319 0
-5313 -5314 5319 0
-5313 -5317 5319 0
5313 5314 5319 0
5313 5317 5319 0
-5318 5319 0
5313 -5314 -5317 5318 -5320 0
-5313 -5314 -5317 -5318 -5320 0
-5313 5318 5320 0
5313 -5318 5320 0
5314 5320 0
5317 5320 0
257 -258 261 262 -5321 0
-257 258 261 -262 -5321 0
-257 -258 5321 0
-257 262 5321 0
257 258 5321 0
257 -262 5321 0
-261 5321 0
-257 258 261 -262 -5322 0
-257 -258 -261 -262 -5322 0
-258 261 5322 0
258 -261 5322 0
257 5322 0
262 5322 0
-3535 3536 5321 5322 -5323 0
3535 -3536 -5321 5322 -5323 0
-3535 -3536 5323 0
-3535 -5321 5323 0
3535 3536 5323 0
3535 5321 5323 0
-5322 5323 0
3535 -3536 -5321 5322 -5324 0
-3535 -3536 -5321 -5322 -5324 0
-3535 5322 5324 0
3535 -5322 5324 0
3536 5324 0
5321 5324 0
-4217 4218 3547 3548 -5325 0
4217 -4218 -3547 3548 -5325 0
-4217 -4218 5325 0
-4217 -3547 5325 0
4217 4218 5325 0
4217 3547 5325 0
-3548 5325 0
4217 -4218 -3547 3548 -5326 0
-4217 -4218 -3547 -3548 -5326 0
-4217 3548 5326 0
4217 -3548 5326 0
4218 5326 0
3547 5326 0
-3553 3554 5325 5326 -5327 0
3553 -3554 -5325 5326 -5327 0
-3553 -3554 5327 0
-3553 -5325 5327 0
3553 3554 5327 0
3553 5325 5327 0
-5326 5327 0
3553 -3554 -5325 5326 -5328 0
-3553 -3554 -5325 -5326 -5328 0
-3553 5326 5328 0
3553 -5326 5328 0
3554 5328 0
5325 5328 0
205 -206 257 258 -5329 0
-205 206 257 -258 -5329 0
-205 -206 5329 0
-205 258 5329 0
205 206 5329 0
205 -258 5329 0
-257 5329 0
-205 206 257 -258 -5330 0
-205 -206 -257 -258 -5330 0
-206 257 5330 0
206 -257 5330 0
205 5330 0
258 5330 0
261 -262 5329 5330 -5331 0
-261 262 -5329 5330 -5331 0
-261 -262 5331 0
-261 5329 5331 0
261 262 5331 0
261 -5329 5331 0
-5330 5331 0
-261 262 -5329 5330 -5332 0
-261 -262 -5329 -5330 -5332 0
-262 5330 5332 0
262 -5330 5332 0
261 5332 0
5329 5332 0
-3535 3536 3547 3548 -5333 0
3535 -3536 -3547 3548 -5333 0
-3535 -3536 5333 0
-3535 -3547 5333 0
3535 3536 5333 0
3535 3547 5333 0
-3548 5333 0
3535 -3536 -3547 3548 -5334 0
-3535 -3536 -3547 -3548 -5334 0
-3535 3548 5334 0
3535 -3548 5334 0
3536 5334 0
3547 5334 0
-3553 3554 5333 5334 -5335 0
3553 -3554 -5333 5334 -5335 0
-3553 -3554 5335 0
-3553 -5333 5335 0
3553 3554 5335 0
3553 5333 5335 0
-5334 5335 0
3553 -3554 -5333 5334 -5336 0
-3553 -3554 -5333 -5334 -5336 0
-3553 5334 5336 0
3553 -5334 5336 0
3554 5336 0
5333 5336 0
-5331 5332 5335 5336 -5337 0
5331 -5332 -5335 5336 -5337 0
-5331 -5332 5337 0
-5331 -5335 5337 0
5331 5332 5337 0
5331 5335 5337 0
-5336 5337 0
5331 -5332 -5335 5336 -5338 0
-5331 -5332 -5335 -5336 -5338 0
-5331 5336 5338 0
5331 -5336 5338 0
5332 5338 0
5335 5338 0
197 -198 199 200 -5339 0
-197 198 199 -200 -5339 0
-197 -198 5339 0
-197 200 5339 0
197 198 5339 0
197 -200 5339 0
-199 5339 0
-197 198 199 -200 -5340 0
-197 -198 -199 -200 -5340 0
-198 199 5340 0
198 -199 5340 0
197 5340 0
200 5340 0
261 -262 5339 5340 -5341 0
-261 262 -5339 5340 -5341 0
-261 -262 5341 0
-261 5339 5341 0
261 262 5341 0
261 -5339 5341 0
-5340 5341 0
-261 262 -5339 5340 -5342 0
-261 -262 -5339 -5340 -5342 0
-262 5340 5342 0
262 -5340 5342 0
261 5342 0
5339 5342 0
-3535 3536 3531 3532 -5343 0
3535 -3536 -3531 3532 -5343 0
-3535 -3536 5343 0
-3535 -3531 5343 0
3535 3536 5343 0
3535 3531 5343 0
-3532 5343 0
3535 -3536 -3531 3532 -5344 0
-3535 -3536 -3531 -3532 -5344 0
-3535 3532 5344 0
3535 -3532 5344 0
3536 5344 0
3531 5344 0
-3547 3548 5343 5344 -5345 0
3547 -3548 -5343 5344 -5345 0
-3547 -3548 5345 0
-3547 -5343 5345 0
3547 3548 5345 0
3547 5343 5345 0
-5344 5345 0
3547 -3548 -5343 5344 -5346 0
-3547 -3548 -5343 -5344 -5346 0
-3547 5344 5346 0
3547 -5344 5346 0
3548 5346 0
5343 5346 0
-5341 5342 5345 5346 -5347 0
5341 -5342 -5345 5346 -5347 0
-5341 -5342 5347 0
-5341 -5345 5347 0
5341 5342 5347 0
5341 5345 5347 0
-5346 5347 0
5341 -5342 -5345 5346 -5348 0
-5341 -5342 -5345 -5346 -5348 0
-5341 5346 5348 0
5341 -5346 5348 0
5342 5348 0
5345 5348 0
197 -198 199 200 -5349 0
-197 198 199 -200 -5349 0
-197 -198 5349 0
-197 200 5349 0
197 198 5349 0
197 -200 5349 0
-199 5349 0
-197 198 199 -200 -5350 0
-197 -198 -199 -200 -5350 0
-198 199 5350 0
198 -199 5350 0
197 5350 0
200 5350 0
261 -262 5349 5350 -5351 0
-261 262 -5349 5350 -5351 0
-261 -262 5351 0
-261 5349 5351 0
261 262 5351 0
261 -5349 5351 0
-5350 5351 0
-261 262 -5349 5350 -5352 0
-261 -262 -5349 -5350 -5352 0
-262 5350 5352 0
262 -5350 5352 0
261 5352 0
5349 5352 0
-3535 3536 3375 3376 -5353 0
3535 -3536 -3375 3376 -5353 0
-3535 -3536 5353 0
-3535 -3375 5353 0
3535 3536 5353 0
3535 3375 5353 0
-3376 5353 0
3535 -3536 -3375 3376 -5354 0
-3535 -3536 -3375 -3376 -5354 0
-3535 3376 5354 0
3535 -3376 5354 0
3536 5354 0
3375 5354 0
-3547 3548 5353 5354 -5355 0
3547 -3548 -5353 5354 -5355 0
-3547 -3548 5355 0
-3547 -5353 5355 0
3547 3548 5355 0
3547 5353 5355 0
-5354 5355 0
3547 -3548 -5353 5354 -5356 0
-3547 -3548 -5353 -5354 -5356 0
-3547 5354 5356 0
3547 -5354 5356 0
3548 5356 0
5353 5356 0
199 -200 261 262 -5357 0
-199 200 261 -262 -5357 0
-199 -200 5357 0
-199 262 5357 0
199 200 5357 0
199 -262 5357 0
-261 5357 0
-199 200 261 -262 -5358 0
-199 -200 -261 -262 -5358 0
-200 261 5358 0
200 -261 5358 0
199 5358 0
262 5358 0
-3535 3536 5357 5358 -5359 0
3535 -3536 -5357 5358 -5359 0
-3535 -3536 5359 0
-3535 -5357 5359 0
3535 3536 5359 0
3535 5357 5359 0
-5358 5359 0
3535 -3536 -5357 5358 -5360 0
-3535 -3536 -5357 -5358 -5360 0
-3535 5358 5360 0
3535 -5358 5360 0
3536 5360 0
5357 5360 0
-4215 4216 3547 3548 -5361 0
4215 -4216 -3547 3548 -5361 0
-4215 -4216 5361 0
-4215 -3547 5361 0
4215 4216 5361 0
4215 3547 5361 0
-3548 5361 0
4215 -4216 -3547 3548 -5362 0
-4215 -4216 -3547 -3548 -5362 0
-4215 3548 5362 0
4215 -3548 5362 0
4216 5362 0
3547 5362 0
-5359 5360 5361 5362 -5363 0
5359 -5360 -5361 5362 -5363 0
-5359 -5360 5363 0
-5359 -5361 5363 0
5359 5360 5363 0
5359 5361 5363 0
-5362 5363 0
5359 -5360 -5361 5362 -5364 0
-5359 -5360 -5361 -5362 -5364 0
-5359 5362 5364 0
5359 -5362 5364 0
5360 5364 0
5361 5364 0
199 -200 261 262 -5365 0
-199 200 261 -262 -5365 0
-199 -200 5365 0
-199 262 5365 0
199 200 5365 0
199 -262 5365 0
-261 5365 0
-199 200 261 -262 -5366 0
-199 -200 -261 -262 -5366 0
-200 261 5366 0
200 -261 5366 0
199 5366 0
262 5366 0
-3535 3536 5365 5366 -5367 0
3535 -3536 -5365 5366 -5367 0
-3535 -3536 5367 0
-3535 -5365 5367 0
3535 3536 5367 0
3535 5365 5367 0
-5366 5367 0
3535 -3536 -5365 5366 -5368 0
-3535 -3536 -5365 -5366 -5368 0
-3535 5366 5368 0
3535 -5366 5368 0
3536 5368 0
5365 5368 0
-4217 4218 3547 3548 -5369 0
4217 -4218 -3547 3548 -5369 0
-4217 -4218 5369 0
-4217 -3547 5369 0
4217 4218 5369 0
4217 3547 5369 0
-3548 5369 0
4217 -4218 -3547 3548 -5370 0
-4217 -4218 -3547 -3548 -5370 0
-4217 3548 5370 0
4217 -3548 5370 0
4218 5370 0
3547 5370 0
-5367 5368 5369 5370 -5371 0
5367 -5368 -5369 5370 -5371 0
-5367 -5368 5371 0
-5367 -5369 5371 0
5367 5368 5371 0
5367 5369 5371 0
-5370 5371 0
5367 -5368 -5369 5370 -5372 0
-5367 -5368 -5369 -5370 -5372 0
-5367 5370 5372 0
5367 -5370 5372 0
5368 5372 0
5369 5372 0
199 -200 205 206 -5373 0
-199 200 205 -206 -5373 0
-199 -200 5373 0
-199 206 5373 0
199 200 5373 0
199 -206 5373 0
-205 5373 0
-199 200 205 -206 -5374 0
-199 -200 -205 -206 -5374 0
-200 205 5374 0
200 -205 5374 0
199 5374 0
206 5374 0
261 -262 5373 5374 -5375 0
-261 262 -5373 5374 -5375 0
-261 -262 5375 0
-261 5373 5375 0
261 262 5375 0
261 -5373 5375 0
-5374 5375 0
-261 262 -5373 5374 -5376 0
-261 -262 -5373 -5374 -5376 0
-262 5374 5376 0
262 -5374 5376 0
261 5376 0
5373 5376 0
-3535 3536 3547 3548 -5377 0
3535 -3536 -3547 3548 -5377 0
-3535 -3536 5377 0
-3535 -3547 5377 0
3535 3536 5377 0
3535 3547 5377 0
-3548 5377 0
3535 -3536 -3547 3548 -5378 0
-3535 -3536 -3547 -3548 -5378 0
-3535 3548 5378 0
3535 -3548 5378 0
3536 5378 0
3547 5378 0
261 -262 3535 3536 -5379 0
-261 262 -3535 3536 -5379 0
-261 -262 5379 0
-261 3535 5379 0
261 262 5379 0
261 -3535 5379 0
-3536 5379 0
-261 262 -3535 3536 -5380 0
-261 -262 -3535 -3536 -5380 0
-262 3536 5380 0
262 -3536 5380 0
261 5380 0
3535 5380 0
-4415 4416 3547 3548 -5381 0
4415 -4416 -3547 3548 -5381 0
-4415 -4416 5381 0
-4415 -3547 5381 0
4415 4416 5381 0
4415 3547 5381 0
-3548 5381 0
4415 -4416 -3547 3548 -5382 0
-4415 -4416 -3547 -3548 -5382 0
-4415 3548 5382 0
4415 -3548 5382 0
4416 5382 0
3547 5382 0
-5379 5380 5381 5382 -5383 0
5379 -5380 -5381 5382 -5383 0
-5379 -5380 5383 0
-5379 -5381 5383 0
5379 5380 5383 0
5379 5381 5383 0
-5382 5383 0
5379 -5380 -5381 5382 -5384 0
-5379 -5380 -5381 -5382 -5384 0
-5379 5382 5384 0
5379 -5382 5384 0
5380 5384 0
5381 5384 0
261 -262 3535 3536 -5385 0
-261 262 -3535 3536 -5385 0
-261 -262 5385 0
-261 3535 5385 0
261 262 5385 0
261 -3535 5385 0
-3536 5385 0
-261 262 -3535 3536 -5386 0
-261 -262 -3535 -3536 -5386 0
-262 3536 5386 0
262 -3536 5386 0
261 5386 0
3535 5386 0
-4415 4416 3553 3554 -5387 0
4415 -4416 -3553 3554 -5387 0
-4415 -4416 5387 0
-4415 -3553 5387 0
4415 4416 5387 0
4415 3553 5387 0
-3554 5387 0
4415 -4416 -3553 3554 -5388 0
-4415 -4416 -3553 -3554 -5388 0
-4415 3554 5388 0
4415 -3554 5388 0
4416 5388 0
3553 5388 0
-5385 5386 5387 5388 -5389 0
5385 -5386 -5387 5388 -5389 0
-5385 -5386 5389 0
-5385 -5387 5389 0
5385 5386 5389 0
5385 5387 5389 0
-5388 5389 0
5385 -5386 -5387 5388 -5390 0
-5385 -5386 -5387 -5388 -5390 0
-5385 5388 5390 0
5385 -5388 5390 0
5386 5390 0
5387 5390 0
261 -262 3535 3536 -5391 0
-261 262 -3535 3536 -5391 0
-261 -262 5391 0
-261 3535 5391 0
261 262 5391 0
261 -3535 5391 0
-3536 5391 0
-261 262 -3535 3536 -5392 0
-261 -262 -3535 -3536 -5392 0
-262 3536 5392 0
262 -3536 5392 0
261 5392 0
3535 5392 0
-4415 4416 3531 3532 -5393 0
4415 -4416 -3531 3532 -5393 0
-4415 -4416 5393 0
-4415 -3531 5393 0
4415 4416 5393 0
4415 3531 5393 0
-3532 5393 0
4415 -4416 -3531 3532 -5394 0
-4415 -4416 -3531 -3532 -5394 0
-4415 3532 5394 0
4415 -3532 5394 0
4416 5394 0
3531 5394 0
261 -262 3535 3536 -5395 0
-261 262 -3535 3536 -5395 0
-261 -262 5395 0
-261 3535 5395 0
261 262 5395 0
261 -3535 5395 0
-3536 5395 0
-261 262 -3535 3536 -5396 0
-261 -262 -3535 -3536 -5396 0
-262 3536 5396 0
262 -3536 5396 0
261 5396 0
3535 5396 0
-4415 4416 3375 3376 -5397 0
4415 -4416 -3375 3376 -5397 0
-4415 -4416 5397 0
-4415 -3375 5397 0
4415 4416 5397 0
4415 3375 5397 0
-3376 5397 0
4415 -4416 -3375 3376 -5398 0
-4415 -4416 -3375 -3376 -5398 0
-4415 3376 5398 0
4415 -3376 5398 0
4416 5398 0
3375 5398 0
199 -200 261 262 -5399 0
-199 200 261 -262 -5399 0
-199 -200 5399 0
-199 262 5399 0
199 200 5399 0
199 -262 5399 0
-261 5399 0
-199 200 261 -262 -5400 0
-199 -200 -261 -262 -5400 0
-200 261 5400 0
200 -261 5400 0
199 5400 0
262 5400 0
-3535 3536 3553 3554 -5401 0
3535 -3536 -3553 3554 -5401 0
-3535 -3536 5401 0
-3535 -3553 5401 0
3535 3536 5401 0
3535 3553 5401 0
-3554 5401 0
3535 -3536 -3553 3554 -5402 0
-3535 -3536 -3553 -3554 -5402 0
-3535 3554 5402 0
3535 -3554 5402 0
3536 5402 0
3553 5402 0
129 -130 133 134 -5403 0
-129 130 133 -134 -5403 0
-129 -130 5403 0
-129 134 5403 0
129 130 5403 0
129 -134 5403 0
-133 5403 0
-129 130 133 -134 -5404 0
-129 -130 -133 -134 -5404 0
-130 133 5404 0
130 -133 5404 0
129 5404 0
134 5404 0
257 -258 5403 5404 -5405 0
-257 258 -5403 5404 -5405 0
-257 -258 5405 0
-257 5403 5405 0
257 258 5405 0
257 -5403 5405 0
-5404 5405 0
-257 258 -5403 5404 -5406 0
-257 -258 -5403 -5404 -5406 0
-258 5404 5406 0
258 -5404 5406 0
257 5406 0
5403 5406 0
-3945 3946 4731 4732 -5407 0
3945 -3946 -4731 4732 -5407 0
-3945 -3946 5407 0
-3945 -4731 5407 0
3945 3946 5407 0
3945 4731 5407 0
-4732 5407 0
3945 -3946 -4731 4732 -5408 0
-3945 -3946 -4731 -4732 -5408 0
-3945 4732 5408 0
3945 -4732 5408 0
3946 5408 0
4731 5408 0
129 -130 133 134 -5409 0
-129 130 133 -134 -5409 0
-129 -130 5409 0
-129 134 5409 0
129 130 5409 0
129 -134 5409 0
-133 5409 0
-129 130 133 -134 -5410 0
-129 -130 -133 -134 -5410 0
-130 133 5410 0
130 -133 5410 0
129 5410 0
134 5410 0
141 -142 5409 5410 -5411 0
-141 142 -5409 5410 -5411 0
-141 -142 5411 0
-141 5409 5411 0
141 142 5411 0
141 -5409 5411 0
-5410 5411 0
-141 142 -5409 5410 -5412 0
-141 -142 -5409 -5410 -5412 0
-142 5410 5412 0
142 -5410 5412 0
141 5412 0
5409 5412 0
257 -258 4731 4732 -5413 0
-257 258 -4731 4732 -5413 0
-257 -258 5413 0
-257 4731 5413 0
257 258 5413 0
257 -4731 5413 0
-4732 5413 0
-257 258 -4731 4732 -5414 0
-257 -258 -4731 -4732 -5414 0
-258 4732 5414 0
258 -4732 5414 0
257 5414 0
4731 5414 0
133 -134 187 188 -5415 0
-133 134 187 -188 -5415 0
-133 -134 5415 0
-133 188 5415 0
133 134 5415 0
133 -188 5415 0
-187 5415 0
-133 134 187 -188 -5416 0
-133 -134 -187 -188 -5416 0
-134 187 5416 0
134 -187 5416 0
133 5416 0
188 5416 0
257 -258 4731 4732 -5417 0
-257 258 -4731 4732 -5417 0
-257 -258 5417 0
-257 4731 5417 0
257 258 5417 0
257 -4731 5417 0
-4732 5417 0
-257 258 -4731 4732 -5418 0
-257 -258 -4731 -4732 -5418 0
-258 4732 5418 0
258 -4732 5418 0
257 5418 0
4731 5418 0
133 -134 179 180 -5419 0
-133 134 179 -180 -5419 0
-133 -134 5419 0
-133 180 5419 0
133 134 5419 0
133 -180 5419 0
-179 5419 0
-133 134 179 -180 -5420 0
-133 -134 -179 -180 -5420 0
-134 179 5420 0
134 -179 5420 0
133 5420 0
180 5420 0
257 -258 4731 4732 -5421 0
-257 258 -4731 4732 -5421 0
-257 -258 5421 0
-257 4731 5421 0
257 258 5421 0
257 -4731 5421 0
-4732 5421 0
-257 258 -4731 4732 -5422 0
-257 -258 -4731 -4732 -5422 0
-258 4732 5422 0
258 -4732 5422 0
257 5422 0
4731 5422 0
121 -122 129 130 -5423 0
-121 122 129 -130 -5423 0
-121 -122 5423 0
-121 130 5423 0
121 122 5423 0
121 -130 5423 0
-129 5423 0
-121 122 129 -130 -5424 0
-121 -122 -129 -130 -5424 0
-122 129 5424 0
122 -129 5424 0
121 5424 0
130 5424 0
-3945 3946 4731 4732 -5425 0
3945 -3946 -4731 4732 -5425 0
-3945 -3946 5425 0
-3945 -4731 5425 0
3945 3946 5425 0
3945 4731 5425 0
-4732 5425 0
3945 -3946 -4731 4732 -5426 0
-3945 -3946 -4731 -4732 -5426 0
-3945 4732 5426 0
3945 -4732 5426 0
3946 5426 0
4731 5426 0
121 -122 129 130 -5427 0
-121 122 129 -130 -5427 0
-121 -122 5427 0
-121 130 5427 0
121 122 5427 0
121 -130 5427 0
-129 5427 0
-121 122 129 -130 -5428 0
-121 -122 -129 -130 -5428 0
-122 129 5428 0
122 -129 5428 0
121 5428 0
130 5428 0
141 -142 4731 4732 -5429 0
-141 142 -4731 4732 -5429 0
-141 -142 5429 0
-141 4731 5429 0
141 142 5429 0
141 -4731 5429 0
-4732 5429 0
-141 142 -4731 4732 -5430 0
-141 -142 -4731 -4732 -5430 0
-142 4732 5430 0
142 -4732 5430 0
141 5430 0
4731 5430 0
121 -122 187 188 -5431 0
-121 122 187 -188 -5431 0
-121 -122 5431 0
-121 188 5431 0
121 122 5431 0
121 -188 5431 0
-187 5431 0
-121 122 187 -188 -5432 0
-121 -122 -187 -188 -5432 0
-122 187 5432 0
122 -187 5432 0
121 5432 0
188 5432 0
121 -122 179 180 -5433 0
-121 122 179 -180 -5433 0
-121 -122 5433 0
-121 180 5433 0
121 122 5433 0
121 -180 5433 0
-179 5433 0
-121 122 179 -180 -5434 0
-121 -122 -179 -180 -5434 0
-122 179 5434 0
122 -179 5434 0
121 5434 0
180 5434 0
67 -68 89 90 -5435 0
-67 68 89 -90 -5435 0
-67 -68 5435 0
-67 90 5435 0
67 68 5435 0
67 -90 5435 0
-89 5435 0
-67 68 89 -90 -5436 0
-67 -68 -89 -90 -5436 0
-68 89 5436 0
68 -89 5436 0
67 5436 0
90 5436 0
209 -210 5435 5436 -5437 0
-209 210 -5435 5436 -5437 0
-209 -210 5437 0
-209 5435 5437 0
209 210 5437 0
209 -5435 5437 0
-5436 5437 0
-209 210 -5435 5436 -5438 0
-209 -210 -5435 -5436 -5438 0
-210 5436 5438 0
210 -5436 5438 0
209 5438 0
5435 5438 0
-4217 4218 4149 4150 -5439 0
4217 -4218 -4149 4150 -5439 0
-4217 -4218 5439 0
-4217 -4149 5439 0
4217 4218 5439 0
4217 4149 5439 0
-4150 5439 0
4217 -4218 -4149 4150 -5440 0
-4217 -4218 -4149 -4150 -5440 0
-4217 4150 5440 0
4217 -4150 5440 0
4218 5440 0
4149 5440 0
67 -68 89 90 -5441 0
-67 68 89 -90 -5441 0
-67 -68 5441 0
-67 90 5441 0
67 68 5441 0
67 -90 5441 0
-89 5441 0
-67 68 89 -90 -5442 0
-67 -68 -89 -90 -5442 0
-68 89 5442 0
68 -89 5442 0
67 5442 0
90 5442 0
207 -208 5441 5442 -5443 0
-207 208 -5441 5442 -5443 0
-207 -208 5443 0
-207 5441 5443 0
207 208 5443 0
207 -5441 5443 0
-5442 5443 0
-207 208 -5441 5442 -5444 0
-207 -208 -5441 -5442 -5444 0
-208 5442 5444 0
208 -5442 5444 0
207 5444 0
5441 5444 0
209 -210 4149 4150 -5445 0
-209 210 -4149 4150 -5445 0
-209 -210 5445 0
-209 4149 5445 0
209 210 5445 0
209 -4149 5445 0
-4150 5445 0
-209 210 -4149 4150 -5446 0
-209 -210 -4149 -4150 -5446 0
-210 4150 5446 0
210 -4150 5446 0
209 5446 0
4149 5446 0
41 -42 89 90 -5447 0
-41 42 89 -90 -5447 0
-41 -42 5447 0
-41 90 5447 0
41 42 5447 0
41 -90 5447 0
-89 5447 0
-41 42 89 -90 -5448 0
-41 -42 -89 -90 -5448 0
-42 89 5448 0
42 -89 5448 0
41 5448 0
90 5448 0
209 -210 5447 5448 -5449 0
-209 210 -5447 5448 -5449 0
-209 -210 5449 0
-209 5447 5449 0
209 210 5449 0
209 -5447 5449 0
-5448 5449 0
-209 210 -5447 5448 -5450 0
-209 -210 -5447 -5448 -5450 0
-210 5448 5450 0
210 -5448 5450 0
209 5450 0
5447 5450 0
-4217 4218 4149 4150 -5451 0
4217 -4218 -4149 4150 -5451 0
-4217 -4218 5451 0
-4217 -4149 5451 0
4217 4218 5451 0
4217 4149 5451 0
-4150 5451 0
4217 -4218 -4149 4150 -5452 0
-4217 -4218 -4149 -4150 -5452 0
-4217 4150 5452 0
4217 -4150 5452 0
4218 5452 0
4149 5452 0
41 -42 89 90 -5453 0
-41 42 89 -90 -5453 0
-41 -42 5453 0
-41 90 5453 0
41 42 5453 0
41 -90 5453 0
-89 5453 0
-41 42 89 -90 -5454 0
-41 -42 -89 -90 -5454 0
-42 89 5454 0
42 -89 5454 0
41 5454 0
90 5454 0
207 -208 5453 5454 -5455 0
-207 208 -5453 5454 -5455 0
-207 -208 5455 0
-207 5453 5455 0
207 208 5455 0
207 -5453 5455 0
-5454 5455 0
-207 208 -5453 5454 -5456 0
-207 -208 -5453 -5454 -5456 0
-208 5454 5456 0
208 -5454 5456 0
207 5456 0
5453 5456 0
209 -210 4149 4150 -5457 0
-209 210 -4149 4150 -5457 0
-209 -210 5457 0
-209 4149 5457 0
209 210 5457 0
209 -4149 5457 0
-4150 5457 0
-209 210 -4149 4150 -5458 0
-209 -210 -4149 -4150 -5458 0
-210 4150 5458 0
210 -4150 5458 0
209 5458 0
4149 5458 0
67 -68 89 90 -5459 0
-67 68 89 -90 -5459 0
-67 -68 5459 0
-67 90 5459 0
67 68 5459 0
67 -90 5459 0
-89 5459 0
-67 68 89 -90 -5460 0
-67 -68 -89 -90 -5460 0
-68 89 5460 0
68 -89 5460 0
67 5460 0
90 5460 0
209 -210 5459 5460 -5461 0
-209 210 -5459 5460 -5461 0
-209 -210 5461 0
-209 5459 5461 0
209 210 5461 0
209 -5459 5461 0
-5460 5461 0
-209 210 -5459 5460 -5462 0
-209 -210 -5459 -5460 -5462 0
-210 5460 5462 0
210 -5460 5462 0
209 5462 0
5459 5462 0
-4217 4218 4627 4628 -5463 0
4217 -4218 -4627 4628 -5463 0
-4217 -4218 5463 0
-4217 -4627 5463 0
4217 4218 5463 0
4217 4627 5463 0
-4628 5463 0
4217 -4218 -4627 4628 -5464 0
-4217 -4218 -4627 -4628 -5464 0
-4217 4628 5464 0
4217 -4628 5464 0
4218 5464 0
4627 5464 0
67 -68 89 90 -5465 0
-67 68 89 -90 -5465 0
-67 -68 5465 0
-67 90 5465 0
67 68 5465 0
67 -90 5465 0
-89 5465 0
-67 68 89 -90 -5466 0
-67 -68 -89 -90 -5466 0
-68 89 5466 0
68 -89 5466 0
67 5466 0
90 5466 0
207 -208 5465 5466 -5467 0
-207 208 -5465 5466 -5467 0
-207 -208 5467 0
-207 5465 5467 0
207 208 5467 0
207 -5465 5467 0
-5466 5467 0
-207 208 -5465 5466 -5468 0
-207 -208 -5465 -5466 -5468 0
-208 5466 5468 0
208 -5466 5468 0
207 5468 0
5465 5468 0
209 -210 4627 4628 -5469 0
-209 210 -4627 4628 -5469 0
-209 -210 5469 0
-209 4627 5469 0
209 210 5469 0
209 -4627 5469 0
-4628 5469 0
-209 210 -4627 4628 -5470 0
-209 -210 -4627 -4628 -5470 0
-210 4628 5470 0
210 -4628 5470 0
209 5470 0
4627 5470 0
41 -42 89 90 -5471 0
-41 42 89 -90 -5471 0
-41 -42 5471 0
-41 90 5471 0
41 42 5471 0
41 -90 5471 0
-89 5471 0
-41 42 89 -90 -5472 0
-41 -42 -89 -90 -5472 0
-42 89 5472 0
42 -89 5472 0
41 5472 0
90 5472 0
41 -42 89 90 -5473 0
-41 42 89 -90 -5473 0
-41 -42 5473 0
-41 90 5473 0
41 42 5473 0
41 -90 5473 0
-89 5473 0
-41 42 89 -90 -5474 0
-41 -42 -89 -90 -5474 0
-42 89 5474 0
42 -89 5474 0
41 5474 0
90 5474 0
207 -208 5473 5474 -5475 0
-207 208 -5473 5474 -5475 0
-207 -208 5475 0
-207 5473 5475 0
207 208 5475 0
207 -5473 5475 0
-5474 5475 0
-207 208 -5473 5474 -5476 0
-207 -208 -5473 -5474 -5476 0
-208 5474 5476 0
208 -5474 5476 0
207 5476 0
5473 5476 0
209 -210 4627 4628 -5477 0
-209 210 -4627 4628 -5477 0
-209 -210 5477 0
-209 4627 5477 0
209 210 5477 0
209 -4627 5477 0
-4628 5477 0
-209 210 -4627 4628 -5478 0
-209 -210 -4627 -4628 -5478 0
-210 4628 5478 0
210 -4628 5478 0
209 5478 0
4627 5478 0
209 -210 4217 4218 -5479 0
-209 210 -4217 4218 -5479 0
-209 -210 5479 0
-209 4217 5479 0
209 210 5479 0
209 -4217 5479 0
-4218 5479 0
-209 210 -4217 4218 -5480 0
-209 -210 -4217 -4218 -5480 0
-210 4218 5480 0
210 -4218 5480 0
209 5480 0
4217 5480 0
-4627 4628 4149 4150 -5481 0
4627 -4628 -4149 4150 -5481 0
-4627 -4628 5481 0
-4627 -4149 5481 0
4627 4628 5481 0
4627 4149 5481 0
-4150 5481 0
4627 -4628 -4149 4150 -5482 0
-4627 -4628 -4149 -4150 -5482 0
-4627 4150 5482 0
4627 -4150 5482 0
4628 5482 0
4149 5482 0
67 -68 69 70 -5483 0
-67 68 69 -70 -5483 0
-67 -68 5483 0
-67 70 5483 0
67 68 5483 0
67 -70 5483 0
-69 5483 0
-67 68 69 -70 -5484 0
-67 -68 -69 -70 -5484 0
-68 69 5484 0
68 -69 5484 0
67 5484 0
70 5484 0
89 -90 4627 4628 -5485 0
-89 90 -4627 4628 -5485 0
-89 -90 5485 0
-89 4627 5485 0
89 90 5485 0
89 -4627 5485 0
-4628 5485 0
-89 90 -4627 4628 -5486 0
-89 -90 -4627 -4628 -5486 0
-90 4628 5486 0
90 -4628 5486 0
89 5486 0
4627 5486 0
41 -42 43 44 -5487 0
-41 42 43 -44 -5487 0
-41 -42 5487 0
-41 44 5487 0
41 42 5487 0
41 -44 5487 0
-43 5487 0
-41 42 43 -44 -5488 0
-41 -42 -43 -44 -5488 0
-42 43 5488 0
42 -43 5488 0
41 5488 0
44 5488 0
89 -90 4627 4628 -5489 0
-89 90 -4627 4628 -5489 0
-89 -90 5489 0
-89 4627 5489 0
89 90 5489 0
89 -4627 5489 0
-4628 5489 0
-89 90 -4627 4628 -5490 0
-89 -90 -4627 -4628 -5490 0
-90 4628 5490 0
90 -4628 5490 0
89 5490 0
4627 5490 0
29 -30 31 32 -5491 0
-29 30 31 -32 -5491 0
-29 -30 5491 0
-29 32 5491 0
29 30 5491 0
29 -32 5491 0
-31 5491 0
-29 30 31 -32 -5492 0
-29 -30 -31 -32 -5492 0
-30 31 5492 0
30 -31 5492 0
29 5492 0
32 5492 0
179 -180 225 226 -5493 0
-179 180 225 -226 -5493 0
-179 -180 5493 0
-179 226 5493 0
179 180 5493 0
179 -226 5493 0
-225 5493 0
-179 180 225 -226 -5494 0
-179 -180 -225 -226 -5494 0
-180 225 5494 0
180 -225 5494 0
179 5494 0
226 5494 0
29 -30 31 32 -5495 0
-29 30 31 -32 -5495 0
-29 -30 5495 0
-29 32 5495 0
29 30 5495 0
29 -32 5495 0
-31 5495 0
-29 30 31 -32 -5496 0
-29 -30 -31 -32 -5496 0
-30 31 5496 0
30 -31 5496 0
29 5496 0
32 5496 0
179 -180 223 224 -5497 0
-179 180 223 -224 -5497 0
-179 -180 5497 0
-179 224 5497 0
179 180 5497 0
179 -224 5497 0
-223 5497 0
-179 180 223 -224 -5498 0
-179 -180 -223 -224 -5498 0
-180 223 5498 0
180 -223 5498 0
179 5498 0
224 5498 0
67 -68 91 92 -5499 0
-67 68 91 -92 -5499 0
-67 -68 5499 0
-67 92 5499 0
67 68 5499 0
67 -92 5499 0
-91 5499 0
-67 68 91 -92 -5500 0
-67 -68 -91 -92 -5500 0
-68 91 5500 0
68 -91 5500 0
67 5500 0
92 5500 0
231 -232 5499 5500 -5501 0
-231 232 -5499 5500 -5501 0
-231 -232 5501 0
-231 5499 5501 0
231 232 5501 0
231 -5499 5501 0
-5500 5501 0
-231 232 -5499 5500 -5502 0
-231 -232 -5499 -5500 -5502 0
-232 5500 5502 0
232 -5500 5502 0
231 5502 0
5499 5502 0
-4051 4052 4553 4554 -5503 0
4051 -4052 -4553 4554 -5503 0
-4051 -4052 5503 0
-4051 -4553 5503 0
4051 4052 5503 0
4051 4553 5503 0
-4554 5503 0
4051 -4052 -4553 4554 -5504 0
-4051 -4052 -4553 -4554 -5504 0
-4051 4554 5504 0
4051 -4554 5504 0
4052 5504 0
4553 5504 0
91 -92 231 232 -5505 0
-91 92 231 -232 -5505 0
-91 -92 5505 0
-91 232 5505 0
91 92 5505 0
91 -232 5505 0
-231 5505 0
-91 92 231 -232 -5506 0
-91 -92 -231 -232 -5506 0
-92 231 5506 0
92 -231 5506 0
91 5506 0
232 5506 0
-4415 4416 4051 4052 -5507 0
4415 -4416 -4051 4052 -5507 0
-4415 -4416 5507 0
-4415 -4051 5507 0
4415 4416 5507 0
4415 4051 5507 0
-4052 5507 0
4415 -4416 -4051 4052 -5508 0
-4415 -4416 -4051 -4052 -5508 0
-4415 4052 5508 0
4415 -4052 5508 0
4416 5508 0
4051 5508 0
67 -68 89 90 -5509 0
-67 68 89 -90 -5509 0
-67 -68 5509 0
-67 90 5509 0
67 68 5509 0
67 -90 5509 0
-89 5509 0
-67 68 89 -90 -5510 0
-67 -68 -89 -90 -5510 0
-68 89 5510 0
68 -89 5510 0
67 5510 0
90 5510 0
67 -68 89 90 -5511 0
-67 68 89 -90 -5511 0
-67 -68 5511 0
-67 90 5511 0
67 68 5511 0
67 -90 5511 0
-89 5511 0
-67 68 89 -90 -5512 0
-67 -68 -89 -90 -5512 0
-68 89 5512 0
68 -89 5512 0
67 5512 0
90 5512 0
41 -42 89 90 -5513 0
-41 42 89 -90 -5513 0
-41 -42 5513 0
-41 90 5513 0
41 42 5513 0
41 -90 5513 0
-89 5513 0
-41 42 89 -90 -5514 0
-41 -42 -89 -90 -5514 0
-42 89 5514 0
42 -89 5514 0
41 5514 0
90 5514 0
81 -82 179 180 -5515 0
-81 82 179 -180 -5515 0
-81 -82 5515 0
-81 180 5515 0
81 82 5515 0
81 -180 5515 0
-179 5515 0
-81 82 179 -180 -5516 0
-81 -82 -179 -180 -5516 0
-82 179 5516 0
82 -179 5516 0
81 5516 0
180 5516 0
211 -212 5515 5516 -5517 0
-211 212 -5515 5516 -5517 0
-211 -212 5517 0
-211 5515 5517 0
211 212 5517 0
211 -5515 5517 0
-5516 5517 0
-211 212 -5515 5516 -5518 0
-211 -212 -5515 -5516 -5518 0
-212 5516 5518 0
212 -5516 5518 0
211 5518 0
5515 5518 0
213 -214 4553 4554 -5519 0
-213 214 -4553 4554 -5519 0
-213 -214 5519 0
-213 4553 5519 0
213 214 5519 0
213 -4553 5519 0
-4554 5519 0
-213 214 -4553 4554 -5520 0
-213 -214 -4553 -4554 -5520 0
-214 4554 5520 0
214 -4554 5520 0
213 5520 0
4553 5520 0
-4217 4218 5519 5520 -5521 0
4217 -4218 -5519 5520 -5521 0
-4217 -4218 5521 0
-4217 -5519 5521 0
4217 4218 5521 0
4217 5519 5521 0
-5520 5521 0
4217 -4218 -5519 5520 -5522 0
-4217 -4218 -5519 -5520 -5522 0
-4217 5520 5522 0
4217 -5520 5522 0
4218 5522 0
5519 5522 0
81 -82 179 180 -5523 0
-81 82 179 -180 -5523 0
-81 -82 5523 0
-81 180 5523 0
81 82 5523 0
81 -180 5523 0
-179 5523 0
-81 82 179 -180 -5524 0
-81 -82 -179 -180 -5524 0
-82 179 5524 0
82 -179 5524 0
81 5524 0
180 5524 0
209 -210 5523 5524 -5525 0
-209 210 -5523 5524 -5525 0
-209 -210 5525 0
-209 5523 5525 0
209 210 5525 0
209 -5523 5525 0
-5524 5525 0
-209 210 -5523 5524 -5526 0
-209 -210 -5523 -5524 -5526 0
-210 5524 5526 0
210 -5524 5526 0
209 5526 0
5523 5526 0
211 -212 213 214 -5527 0
-211 212 213 -214 -5527 0
-211 -212 5527 0
-211 214 5527 0
211 212 5527 0
211 -214 5527 0
-213 5527 0
-211 212 213 -214 -5528 0
-211 -212 -213 -214 -5528 0
-212 213 5528 0
212 -213 5528 0
211 5528 0
214 5528 0
-4553 4554 5527 5528 -5529 0
4553 -4554 -5527 5528 -5529 0
-4553 -4554 5529 0
-4553 -5527 5529 0
4553 4554 5529 0
4553 5527 5529 0
-5528 5529 0
4553 -4554 -5527 5528 -5530 0
-4553 -4554 -5527 -5528 -5530 0
-4553 5528 5530 0
4553 -5528 5530 0
4554 5530 0
5527 5530 0
81 -82 179 180 -5531 0
-81 82 179 -180 -5531 0
-81 -82 5531 0
-81 180 5531 0
81 82 5531 0
81 -180 5531 0
-179 5531 0
-81 82 179 -180 -5532 0
-81 -82 -179 -180 -5532 0
-82 179 5532 0
82 -179 5532 0
81 5532 0
180 5532 0
211 -212 213 214 -5533 0
-211 212 213 -214 -5533 0
-211 -212 5533 0
-211 214 5533 0
211 212 5533 0
211 -214 5533 0
-213 5533 0
-211 212 213 -214 -5534 0
-211 -212 -213 -214 -5534 0
-212 213 5534 0
212 -213 5534 0
211 5534 0
214 5534 0
81 -82 179 180 -5535 0
-81 82 179 -180 -5535 0
-81 -82 5535 0
-81 180 5535 0
81 82 5535 0
81 -180 5535 0
-179 5535 0
-81 82 179 -180 -5536 0
-81 -82 -179 -180 -5536 0
-82 179 5536 0
82 -179 5536 0
81 5536 0
180 5536 0
81 -82 179 180 -5537 0
-81 82 179 -180 -5537 0
-81 -82 5537 0
-81 180 5537 0
81 82 5537 0
81 -180 5537 0
-179 5537 0
-81 82 179 -180 -5538 0
-81 -82 -179 -180 -5538 0
-82 179 5538 0
82 -179 5538 0
81 5538 0
180 5538 0
81 -82 179 180 -5539 0
-81 82 179 -180 -5539 0
-81 -82 5539 0
-81 180 5539 0
81 82 5539 0
81 -180 5539 0
-179 5539 0
-81 82 179 -180 -5540 0
-81 -82 -179 -180 -5540 0
-82 179 5540 0
82 -179 5540 0
81 5540 0
180 5540 0
211 -212 213 214 -5541 0
-211 212 213 -214 -5541 0
-211 -212 5541 0
-211 214 5541 0
211 212 5541 0
211 -214 5541 0
-213 5541 0
-211 212 213 -214 -5542 0
-211 -212 -213 -214 -5542 0
-212 213 5542 0
212 -213 5542 0
211 5542 0
214 5542 0
209 -210 211 212 -5543 0
-209 210 211 -212 -5543 0
-209 -210 5543 0
-209 212 5543 0
209 210 5543 0
209 -212 5543 0
-211 5543 0
-209 210 211 -212 -5544 0
-209 -210 -211 -212 -5544 0
-210 211 5544 0
210 -211 5544 0
209 5544 0
212 5544 0
207 -208 211 212 -5545 0
-207 208 211 -212 -5545 0
-207 -208 5545 0
-207 212 5545 0
207 208 5545 0
207 -212 5545 0
-211 5545 0
-207 208 211 -212 -5546 0
-207 -208 -211 -212 -5546 0
-208 211 5546 0
208 -211 5546 0
207 5546 0
212 5546 0
29 -30 31 32 -5547 0
-29 30 31 -32 -5547 0
-29 -30 5547 0
-29 32 5547 0
29 30 5547 0
29 -32 5547 0
-31 5547 0
-29 30 31 -32 -5548 0
-29 -30 -31 -32 -5548 0
-30 31 5548 0
30 -31 5548 0
29 5548 0
32 5548 0
33 -34 5547 5548 -5549 0
-33 34 -5547 5548 -5549 0
-33 -34 5549 0
-33 5547 5549 0
33 34 5549 0
33 -5547 5549 0
-5548 5549 0
-33 34 -5547 5548 -5550 0
-33 -34 -5547 -5548 -5550 0
-34 5548 5550 0
34 -5548 5550 0
33 5550 0
5547 5550 0
137 -138 139 140 -5551 0
-137 138 139 -140 -5551 0
-137 -138 5551 0
-137 140 5551 0
137 138 5551 0
137 -140 5551 0
-139 5551 0
-137 138 139 -140 -5552 0
-137 -138 -139 -140 -5552 0
-138 139 5552 0
138 -139 5552 0
137 5552 0
140 5552 0
-5549 5550 5551 5552 -5553 0
5549 -5550 -5551 5552 -5553 0
-5549 -5550 5553 0
-5549 -5551 5553 0
5549 5550 5553 0
5549 5551 5553 0
-5552 5553 0
5549 -5550 -5551 5552 -5554 0
-5549 -5550 -5551 -5552 -5554 0
-5549 5552 5554 0
5549 -5552 5554 0
5550 5554 0
5551 5554 0
141 -142 169 170 -5555 0
-141 142 169 -170 -5555 0
-141 -142 5555 0
-141 170 5555 0
141 142 5555 0
141 -170 5555 0
-169 5555 0
-141 142 169 -170 -5556 0
-141 -142 -169 -170 -5556 0
-142 169 5556 0
142 -169 5556 0
141 5556 0
170 5556 0
171 -172 4559 4560 -5557 0
-171 172 -4559 4560 -5557 0
-171 -172 5557 0
-171 4559 5557 0
171 172 5557 0
171 -4559 5557 0
-4560 5557 0
-171 172 -4559 4560 -5558 0
-171 -172 -4559 -4560 -5558 0
-172 4560 5558 0
172 -4560 5558 0
171 5558 0
4559 5558 0
-5555 5556 5557 5558 -5559 0
5555 -5556 -5557 5558 -5559 0
-5555 -5556 5559 0
-5555 -5557 5559 0
5555 5556 5559 0
5555 5557 5559 0
-5558 5559 0
5555 -5556 -5557 5558 -5560 0
-5555 -5556 -5557 -5558 -5560 0
-5555 5558 5560 0
5555 -5558 5560 0
5556 5560 0
5557 5560 0
1 -2 29 30 -5561 0
-1 2 29 -30 -5561 0
-1 -2 5561 0
-1 30 5561 0
1 2 5561 0
1 -30 5561 0
-29 5561 0
-1 2 29 -30 -5562 0
-1 -2 -29 -30 -5562 0
-2 29 5562 0
2 -29 5562 0
1 5562 0
30 5562 0
31 -32 5561 5562 -5563 0
-31 32 -5561 5562 -5563 0
-31 -32 5563 0
-31 5561 5563 0
31 32 5563 0
31 -5561 5563 0
-5562 5563 0
-31 32 -5561 5562 -5564 0
-31 -32 -5561 -5562 -5564 0
-32 5562 5564 0
32 -5562 5564 0
31 5564 0
5561 5564 0
33 -34 137 138 -5565 0
-33 34 137 -138 -5565 0
-33 -34 5565 0
-33 138 5565 0
33 34 5565 0
33 -138 5565 0
-137 5565 0
-33 34 137 -138 -5566 0
-33 -34 -137 -138 -5566 0
-34 137 5566 0
34 -137 5566 0
33 5566 0
138 5566 0
-5563 5564 5565 5566 -5567 0
5563 -5564 -5565 5566 -5567 0
-5563 -5564 5567 0
-5563 -5565 5567 0
5563 5564 5567 0
5563 5565 5567 0
-5566 5567 0
5563 -5564 -5565 5566 -5568 0
-5563 -5564 -5565 -5566 -5568 0
-5563 5566 5568 0
5563 -5566 5568 0
5564 5568 0
5565 5568 0
139 -140 141 142 -5569 0
-139 140 141 -142 -5569 0
-139 -140 5569 0
-139 142 5569 0
139 140 5569 0
139 -142 5569 0
-141 5569 0
-139 140 141 -142 -5570 0
-139 -140 -141 -142 -5570 0
-140 141 5570 0
140 -141 5570 0
139 5570 0
142 5570 0
169 -170 171 172 -5571 0
-169 170 171 -172 -5571 0
-169 -170 5571 0
-169 172 5571 0
169 170 5571 0
169 -172 5571 0
-171 5571 0
-169 170 171 -172 -5572 0
-169 -170 -171 -172 -5572 0
-170 171 5572 0
170 -171 5572 0
169 5572 0
172 5572 0
-5569 5570 5571 5572 -5573 0
5569 -5570 -5571 5572 -5573 0
-5569 -5570 5573 0
-5569 -5571 5573 0
5569 5570 5573 0
5569 5571 5573 0
-5572 5573 0
5569 -5570 -5571 5572 -5574 0
-5569 -5570 -5571 -5572 -5574 0
-5569 5572 5574 0
5569 -5572 5574 0
5570 5574 0
5571 5574 0
29 -30 31 32 -5575 0
-29 30 31 -32 -5575 0
-29 -30 5575 0
-29 32 5575 0
29 30 5575 0
29 -32 5575 0
-31 5575 0
-29 30 31 -32 -5576 0
-29 -30 -31 -32 -5576 0
-30 31 5576 0
30 -31 5576 0
29 5576 0
32 5576 0
33 -34 5575 5576 -5577 0
-33 34 -5575 5576 -5577 0
-33 -34 5577 0
-33 5575 5577 0
33 34 5577 0
33 -5575 5577 0
-5576 5577 0
-33 34 -5575 5576 -5578 0
-33 -34 -5575 -5576 -5578 0
-34 5576 5578 0
34 -5576 5578 0
33 5578 0
5575 5578 0
115 -116 117 118 -5579 0
-115 116 117 -118 -5579 0
-115 -116 5579 0
-115 118 5579 0
115 116 5579 0
115 -118 5579 0
-117 5579 0
-115 116 117 -118 -5580 0
-115 -116 -117 -118 -5580 0
-116 117 5580 0
116 -117 5580 0
115 5580 0
118 5580 0
-5577 5578 5579 5580 -5581 0
5577 -5578 -5579 5580 -5581 0
-5577 -5578 5581 0
-5577 -5579 5581 0
5577 5578 5581 0
5577 5579 5581 0
-5580 5581 0
5577 -5578 -5579 5580 -5582 0
-5577 -5578 -5579 -5580 -5582 0
-5577 5580 5582 0
5577 -5580 5582 0
5578 5582 0
5579 5582 0
119 -120 169 170 -5583 0
-119 120 169 -170 -5583 0
-119 -120 5583 0
-119 170 5583 0
119 120 5583 0
119 -170 5583 0
-169 5583 0
-119 120 169 -170 -5584 0
-119 -120 -169 -170 -5584 0
-120 169 5584 0
120 -169 5584 0
119 5584 0
170 5584 0
171 -172 4559 4560 -5585 0
-171 172 -4559 4560 -5585 0
-171 -172 5585 0
-171 4559 5585 0
171 172 5585 0
171 -4559 5585 0
-4560 5585 0
-171 172 -4559 4560 -5586 0
-171 -172 -4559 -4560 -5586 0
-172 4560 5586 0
172 -4560 5586 0
171 5586 0
4559 5586 0
-5583 5584 5585 5586 -5587 0
5583 -5584 -5585 5586 -5587 0
-5583 -5584 5587 0
-5583 -5585 5587 0
5583 5584 5587 0
5583 5585 5587 0
-5586 5587 0
5583 -5584 -5585 5586 -5588 0
-5583 -5584 -5585 -5586 -5588 0
-5583 5586 5588 0
5583 -5586 5588 0
5584 5588 0
5585 5588 0
1 -2 29 30 -5589 0
-1 2 29 -30 -5589 0
-1 -2 5589 0
-1 30 5589 0
1 2 5589 0
1 -30 5589 0
-29 5589 0
-1 2 29 -30 -5590 0
-1 -2 -29 -30 -5590 0
-2 29 5590 0
2 -29 5590 0
1 5590 0
30 5590 0
31 -32 5589 5590 -5591 0
-31 32 -5589 5590 -5591 0
-31 -32 5591 0
-31 5589 5591 0
31 32 5591 0
31 -5589 5591 0
-5590 5591 0
-31 32 -5589 5590 -5592 0
-31 -32 -5589 -5590 -5592 0
-32 5590 5592 0
32 -5590 5592 0
31 5592 0
5589 5592 0
33 -34 115 116 -5593 0
-33 34 115 -116 -5593 0
-33 -34 5593 0
-33 116 5593 0
33 34 5593 0
33 -116 5593 0
-115 5593 0
-33 34 115 -116 -5594 0
-33 -34 -115 -116 -5594 0
-34 115 5594 0
34 -115 5594 0
33 5594 0
116 5594 0
-5591 5592 5593 5594 -5595 0
5591 -5592 -5593 5594 -5595 0
-5591 -5592 5595 0
-5591 -5593 5595 0
5591 5592 5595 0
5591 5593 5595 0
-5594 5595 0
5591 -5592 -5593 5594 -5596 0
-5591 -5592 -5593 -5594 -5596 0
-5591 5594 5596 0
5591 -5594 5596 0
5592 5596 0
5593 5596 0
117 -118 119 120 -5597 0
-117 118 119 -120 -5597 0
-117 -118 5597 0
-117 120 5597 0
117 118 5597 0
117 -120 5597 0
-119 5597 0
-117 118 119 -120 -5598 0
-117 -118 -119 -120 -5598 0
-118 119 5598 0
118 -119 5598 0
117 5598 0
120 5598 0
169 -170 171 172 -5599 0
-169 170 171 -172 -5599 0
-169 -170 5599 0
-169 172 5599 0
169 170 5599 0
169 -172 5599 0
-171 5599 0
-169 170 171 -172 -5600 0
-169 -170 -171 -172 -5600 0
-170 171 5600 0
170 -171 5600 0
169 5600 0
172 5600 0
-5597 5598 5599 5600 -5601 0
5597 -5598 -5599 5600 -5601 0
-5597 -5598 5601 0
-5597 -5599 5601 0
5597 5598 5601 0
5597 5599 5601 0
-5600 5601 0
5597 -5598 -5599 5600 -5602 0
-5597 -5598 -5599 -5600 -5602 0
-5597 5600 5602 0
5597 -5600 5602 0
5598 5602 0
5599 5602 0
1 -2 115 116 -5603 0
-1 2 115 -116 -5603 0
-1 -2 5603 0
-1 116 5603 0
1 2 5603 0
1 -116 5603 0
-115 5603 0
-1 2 115 -116 -5604 0
-1 -2 -115 -116 -5604 0
-2 115 5604 0
2 -115 5604 0
1 5604 0
116 5604 0
117 -118 5603 5604 -5605 0
-117 118 -5603 5604 -5605 0
-117 -118 5605 0
-117 5603 5605 0
117 118 5605 0
117 -5603 5605 0
-5604 5605 0
-117 118 -5603 5604 -5606 0
-117 -118 -5603 -5604 -5606 0
-118 5604 5606 0
118 -5604 5606 0
117 5606 0
5603 5606 0
119 -120 137 138 -5607 0
-119 120 137 -138 -5607 0
-119 -120 5607 0
-119 138 5607 0
119 120 5607 0
119 -138 5607 0
-137 5607 0
-119 120 137 -138 -5608 0
-119 -120 -137 -138 -5608 0
-120 137 5608 0
120 -137 5608 0
119 5608 0
138 5608 0
-5605 5606 5607 5608 -5609 0
5605 -5606 -5607 5608 -5609 0
-5605 -5606 5609 0
-5605 -5607 5609 0
5605 5606 5609 0
5605 5607 5609 0
-5608 5609 0
5605 -5606 -5607 5608 -5610 0
-5605 -5606 -5607 -5608 -5610 0
-5605 5608 5610 0
5605 -5608 5610 0
5606 5610 0
5607 5610 0
139 -140 141 142 -5611 0
-139 140 141 -142 -5611 0
-139 -140 5611 0
-139 142 5611 0
139 140 5611 0
139 -142 5611 0
-141 5611 0
-139 140 141 -142 -5612 0
-139 -140 -141 -142 -5612 0
-140 141 5612 0
140 -141 5612 0
139 5612 0
142 5612 0
169 -170 171 172 -5613 0
-169 170 171 -172 -5613 0
-169 -170 5613 0
-169 172 5613 0
169 170 5613 0
169 -172 5613 0
-171 5613 0
-169 170 171 -172 -5614 0
-169 -170 -171 -172 -5614 0
-170 171 5614 0
170 -171 5614 0
169 5614 0
172 5614 0
-5611 5612 5613 5614 -5615 0
5611 -5612 -5613 5614 -5615 0
-5611 -5612 5615 0
-5611 -5613 5615 0
5611 5612 5615 0
5611 5613 5615 0
-5614 5615 0
5611 -5612 -5613 5614 -5616 0
-5611 -5612 -5613 -5614 -5616 0
-5611 5614 5616 0
5611 -5614 5616 0
5612 5616 0
5613 5616 0
1 -2 137 138 -5617 0
-1 2 137 -138 -5617 0
-1 -2 5617 0
-1 138 5617 0
1 2 5617 0
1 -138 5617 0
-137 5617 0
-1 2 137 -138 -5618 0
-1 -2 -137 -138 -5618 0
-2 137 5618 0
2 -137 5618 0
1 5618 0
138 5618 0
139 -140 5617 5618 -5619 0
-139 140 -5617 5618 -5619 0
-139 -140 5619 0
-139 5617 5619 0
139 140 5619 0
139 -5617 5619 0
-5618 5619 0
-139 140 -5617 5618 -5620 0
-139 -140 -5617 -5618 -5620 0
-140 5618 5620 0
140 -5618 5620 0
139 5620 0
5617 5620 0
141 -142 169 170 -5621 0
-141 142 169 -170 -5621 0
-141 -142 5621 0
-141 170 5621 0
141 142 5621 0
141 -170 5621 0
-169 5621 0
-141 142 169 -170 -5622 0
-141 -142 -169 -170 -5622 0
-142 169 5622 0
142 -169 5622 0
141 5622 0
170 5622 0
171 -172 5621 5622 -5623 0
-171 172 -5621 5622 -5623 0
-171 -172 5623 0
-171 5621 5623 0
171 172 5623 0
171 -5621 5623 0
-5622 5623 0
-171 172 -5621 5622 -5624 0
-171 -172 -5621 -5622 -5624 0
-172 5622 5624 0
172 -5622 5624 0
171 5624 0
5621 5624 0
81 -82 137 138 -5625 0
-81 82 137 -138 -5625 0
-81 -82 5625 0
-81 138 5625 0
81 82 5625 0
81 -138 5625 0
-137 5625 0
-81 82 137 -138 -5626 0
-81 -82 -137 -138 -5626 0
-82 137 5626 0
82 -137 5626 0
81 5626 0
138 5626 0
141 -142 169 170 -5627 0
-141 142 169 -170 -5627 0
-141 -142 5627 0
-141 170 5627 0
141 142 5627 0
141 -170 5627 0
-169 5627 0
-141 142 169 -170 -5628 0
-141 -142 -169 -170 -5628 0
-142 169 5628 0
142 -169 5628 0
141 5628 0
170 5628 0
1 -2 81 82 -5629 0
-1 2 81 -82 -5629 0
-1 -2 5629 0
-1 82 5629 0
1 2 5629 0
1 -82 5629 0
-81 5629 0
-1 2 81 -82 -5630 0
-1 -2 -81 -82 -5630 0
-2 81 5630 0
2 -81 5630 0
1 5630 0
82 5630 0
137 -138 5629 5630 -5631 0
-137 138 -5629 5630 -5631 0
-137 -138 5631 0
-137 5629 5631 0
137 138 5631 0
137 -5629 5631 0
-5630 5631 0
-137 138 -5629 5630 -5632 0
-137 -138 -5629 -5630 -5632 0
-138 5630 5632 0
138 -5630 5632 0
137 5632 0
5629 5632 0
139 -140 141 142 -5633 0
-139 140 141 -142 -5633 0
-139 -140 5633 0
-139 142 5633 0
139 140 5633 0
139 -142 5633 0
-141 5633 0
-139 140 141 -142 -5634 0
-139 -140 -141 -142 -5634 0
-140 141 5634 0
140 -141 5634 0
139 5634 0
142 5634 0
169 -170 5633 5634 -5635 0
-169 170 -5633 5634 -5635 0
-169 -170 5635 0
-169 5633 5635 0
169 170 5635 0
169 -5633 5635 0
-5634 5635 0
-169 170 -5633 5634 -5636 0
-169 -170 -5633 -5634 -5636 0
-170 5634 5636 0
170 -5634 5636 0
169 5636 0
5633 5636 0
81 -82 115 116 -5637 0
-81 82 115 -116 -5637 0
-81 -82 5637 0
-81 116 5637 0
81 82 5637 0
81 -116 5637 0
-115 5637 0
-81 82 115 -116 -5638 0
-81 -82 -115 -116 -5638 0
-82 115 5638 0
82 -115 5638 0
81 5638 0
116 5638 0
117 -118 5637 5638 -5639 0
-117 118 -5637 5638 -5639 0
-117 -118 5639 0
-117 5637 5639 0
117 118 5639 0
117 -5637 5639 0
-5638 5639 0
-117 118 -5637 5638 -5640 0
-117 -118 -5637 -5638 -5640 0
-118 5638 5640 0
118 -5638 5640 0
117 5640 0
5637 5640 0
119 -120 169 170 -5641 0
-119 120 169 -170 -5641 0
-119 -120 5641 0
-119 170 5641 0
119 120 5641 0
119 -170 5641 0
-169 5641 0
-119 120 169 -170 -5642 0
-119 -120 -169 -170 -5642 0
-120 169 5642 0
120 -169 5642 0
119 5642 0
170 5642 0
-4559 4560 5641 5642 -5643 0
4559 -4560 -5641 5642 -5643 0
-4559 -4560 5643 0
-4559 -5641 5643 0
4559 4560 5643 0
4559 5641 5643 0
-5642 5643 0
4559 -4560 -5641 5642 -5644 0
-4559 -4560 -5641 -5642 -5644 0
-4559 5642 5644 0
4559 -5642 5644 0
4560 5644 0
5641 5644 0
1 -2 81 82 -5645 0
-1 2 81 -82 -5645 0
-1 -2 5645 0
-1 82 5645 0
1 2 5645 0
1 -82 5645 0
-81 5645 0
-1 2 81 -82 -5646 0
-1 -2 -81 -82 -5646 0
-2 81 5646 0
2 -81 5646 0
1 5646 0
82 5646 0
117 -118 119 120 -5647 0
-117 118 119 -120 -5647 0
-117 -118 5647 0
-117 120 5647 0
117 118 5647 0
117 -120 5647 0
-119 5647 0
-117 118 119 -120 -5648 0
-117 -118 -119 -120 -5648 0
-118 119 5648 0
118 -119 5648 0
117 5648 0
120 5648 0
1 -2 137 138 -5649 0
-1 2 137 -138 -5649 0
-1 -2 5649 0
-1 138 5649 0
1 2 5649 0
1 -138 5649 0
-137 5649 0
-1 2 137 -138 -5650 0
-1 -2 -137 -138 -5650 0
-2 137 5650 0
2 -137 5650 0
1 5650 0
138 5650 0
139 -140 5649 5650 -5651 0
-139 140 -5649 5650 -5651 0
-139 -140 5651 0
-139 5649 5651 0
139 140 5651 0
139 -5649 5651 0
-5650 5651 0
-139 140 -5649 5650 -5652 0
-139 -140 -5649 -5650 -5652 0
-140 5650 5652 0
140 -5650 5652 0
139 5652 0
5649 5652 0
141 -142 171 172 -5653 0
-141 142 171 -172 -5653 0
-141 -142 5653 0
-141 172 5653 0
141 142 5653 0
141 -172 5653 0
-171 5653 0
-141 142 171 -172 -5654 0
-141 -142 -171 -172 -5654 0
-142 171 5654 0
142 -171 5654 0
141 5654 0
172 5654 0
179 -180 5653 5654 -5655 0
-179 180 -5653 5654 -5655 0
-179 -180 5655 0
-179 5653 5655 0
179 180 5655 0
179 -5653 5655 0
-5654 5655 0
-179 180 -5653 5654 -5656 0
-179 -180 -5653 -5654 -5656 0
-180 5654 5656 0
180 -5654 5656 0
179 5656 0
5653 5656 0
29 -30 31 32 -5657 0
-29 30 31 -32 -5657 0
-29 -30 5657 0
-29 32 5657 0
29 30 5657 0
29 -32 5657 0
-31 5657 0
-29 30 31 -32 -5658 0
-29 -30 -31 -32 -5658 0
-30 31 5658 0
30 -31 5658 0
29 5658 0
32 5658 0
33 -34 5657 5658 -5659 0
-33 34 -5657 5658 -5659 0
-33 -34 5659 0
-33 5657 5659 0
33 34 5659 0
33 -5657 5659 0
-5658 5659 0
-33 34 -5657 5658 -5660 0
-33 -34 -5657 -5658 -5660 0
-34 5658 5660 0
34 -5658 5660 0
33 5660 0
5657 5660 0
171 -172 179 180 -5661 0
-171 172 179 -180 -5661 0
-171 -172 5661 0
-171 180 5661 0
171 172 5661 0
171 -180 5661 0
-179 5661 0
-171 172 179 -180 -5662 0
-171 -172 -179 -180 -5662 0
-172 179 5662 0
172 -179 5662 0
171 5662 0
180 5662 0
1 -2 169 170 -5663 0
-1 2 169 -170 -5663 0
-1 -2 5663 0
-1 170 5663 0
1 2 5663 0
1 -170 5663 0
-169 5663 0
-1 2 169 -170 -5664 0
-1 -2 -169 -170 -5664 0
-2 169 5664 0
2 -169 5664 0
1 5664 0
170 5664 0
171 -172 5663 5664 -5665 0
-171 172 -5663 5664 -5665 0
-171 -172 5665 0
-171 5663 5665 0
171 172 5665 0
171 -5663 5665 0
-5664 5665 0
-171 172 -5663 5664 -5666 0
-171 -172 -5663 -5664 -5666 0
-172 5664 5666 0
172 -5664 5666 0
171 5666 0
5663 5666 0
179 -180 195 196 -5667 0
-179 180 195 -196 -5667 0
-179 -180 5667 0
-179 196 5667 0
179 180 5667 0
179 -196 5667 0
-195 5667 0
-179 180 195 -196 -5668 0
-179 -180 -195 -196 -5668 0
-180 195 5668 0
180 -195 5668 0
179 5668 0
196 5668 0
-4415 4416 5667 5668 -5669 0
4415 -4416 -5667 5668 -5669 0
-4415 -4416 5669 0
-4415 -5667 5669 0
4415 4416 5669 0
4415 5667 5669 0
-5668 5669 0
4415 -4416 -5667 5668 -5670 0
-4415 -4416 -5667 -5668 -5670 0
-4415 5668 5670 0
4415 -5668 5670 0
4416 5670 0
5667 5670 0
-5665 5666 5669 5670 -5671 0
5665 -5666 -5669 5670 -5671 0
-5665 -5666 5671 0
-5665 -5669 5671 0
5665 5666 5671 0
5665 5669 5671 0
-5670 5671 0
5665 -5666 -5669 5670 -5672 0
-5665 -5666 -5669 -5670 -5672 0
-5665 5670 5672 0
5665 -5670 5672 0
5666 5672 0
5669 5672 0
1 -2 143 144 -5673 0
-1 2 143 -144 -5673 0
-1 -2 5673 0
-1 144 5673 0
1 2 5673 0
1 -144 5673 0
-143 5673 0
-1 2 143 -144 -5674 0
-1 -2 -143 -144 -5674 0
-2 143 5674 0
2 -143 5674 0
1 5674 0
144 5674 0
169 -170 5673 5674 -5675 0
-169 170 -5673 5674 -5675 0
-169 -170 5675 0
-169 5673 5675 0
169 170 5675 0
169 -5673 5675 0
-5674 5675 0
-169 170 -5673 5674 -5676 0
-169 -170 -5673 -5674 -5676 0
-170 5674 5676 0
170 -5674 5676 0
169 5676 0
5673 5676 0
171 -172 179 180 -5677 0
-171 172 179 -180 -5677 0
-171 -172 5677 0
-171 180 5677 0
171 172 5677 0
171 -180 5677 0
-179 5677 0
-171 172 179 -180 -5678 0
-171 -172 -179 -180 -5678 0
-172 179 5678 0
172 -179 5678 0
171 5678 0
180 5678 0
-4415 4416 5677 5678 -5679 0
4415 -4416 -5677 5678 -5679 0
-4415 -4416 5679 0
-4415 -5677 5679 0
4415 4416 5679 0
4415 5677 5679 0
-5678 5679 0
4415 -4416 -5677 5678 -5680 0
-4415 -4416 -5677 -5678 -5680 0
-4415 5678 5680 0
4415 -5678 5680 0
4416 5680 0
5677 5680 0
-5675 5676 5679 5680 -5681 0
5675 -5676 -5679 5680 -5681 0
-5675 -5676 5681 0
-5675 -5679 5681 0
5675 5676 5681 0
5675 5679 5681 0
-5680 5681 0
5675 -5676 -5679 5680 -5682 0
-5675 -5676 -5679 -5680 -5682 0
-5675 5680 5682 0
5675 -5680 5682 0
5676 5682 0
5679 5682 0
1 -2 169 170 -5683 0
-1 2 169 -170 -5683 0
-1 -2 5683 0
-1 170 5683 0
1 2 5683 0
1 -170 5683 0
-169 5683 0
-1 2 169 -170 -5684 0
-1 -2 -169 -170 -5684 0
-2 169 5684 0
2 -169 5684 0
1 5684 0
170 5684 0
171 -172 5683 5684 -5685 0
-171 172 -5683 5684 -5685 0
-171 -172 5685 0
-171 5683 5685 0
171 172 5685 0
171 -5683 5685 0
-5684 5685 0
-171 172 -5683 5684 -5686 0
-171 -172 -5683 -5684 -5686 0
-172 5684 5686 0
172 -5684 5686 0
171 5686 0
5683 5686 0
179 -180 195 196 -5687 0
-179 180 195 -196 -5687 0
-179 -180 5687 0
-179 196 5687 0
179 180 5687 0
179 -196 5687 0
-195 5687 0
-179 180 195 -196 -5688 0
-179 -180 -195 -196 -5688 0
-180 195 5688 0
180 -195 5688 0
179 5688 0
196 5688 0
-4413 4414 5687 5688 -5689 0
4413 -4414 -5687 5688 -5689 0
-4413 -4414 5689 0
-4413 -5687 5689 0
4413 4414 5689 0
4413 5687 5689 0
-5688 5689 0
4413 -4414 -5687 5688 -5690 0
-4413 -4414 -5687 -5688 -5690 0
-4413 5688 5690 0
4413 -5688 5690 0
4414 5690 0
5687 5690 0
-5685 5686 5689 5690 -5691 0
5685 -5686 -5689 5690 -5691 0
-5685 -5686 5691 0
-5685 -5689 5691 0
5685 5686 5691 0
5685 5689 5691 0
-5690 5691 0
5685 -5686 -5689 5690 -5692 0
-5685 -5686 -5689 -5690 -5692 0
-5685 5690 5692 0
5685 -5690 5692 0
5686 5692 0
5689 5692 0
1 -2 143 144 -5693 0
-1 2 143 -144 -5693 0
-1 -2 5693 0
-1 144 5693 0
1 2 5693 0
1 -144 5693 0
-143 5693 0
-1 2 143 -144 -5694 0
-1 -2 -143 -144 -5694 0
-2 143 5694 0
2 -143 5694 0
1 5694 0
144 5694 0
169 -170 5693 5694 -5695 0
-169 170 -5693 5694 -5695 0
-169 -170 5695 0
-169 5693 5695 0
169 170 5695 0
169 -5693 5695 0
-5694 5695 0
-169 170 -5693 5694 -5696 0
-169 -170 -5693 -5694 -5696 0
-170 5694 5696 0
170 -5694 5696 0
169 5696 0
5693 5696 0
171 -172 179 180 -5697 0
-171 172 179 -180 -5697 0
-171 -172 5697 0
-171 180 5697 0
171 172 5697 0
171 -180 5697 0
-179 5697 0
-171 172 179 -180 -5698 0
-171 -172 -179 -180 -5698 0
-172 179 5698 0
172 -179 5698 0
171 5698 0
180 5698 0
-4413 4414 5697 5698 -5699 0
4413 -4414 -5697 5698 -5699 0
-4413 -4414 5699 0
-4413 -5697 5699 0
4413 4414 5699 0
4413 5697 5699 0
-5698 5699 0
4413 -4414 -5697 5698 -5700 0
-4413 -4414 -5697 -5698 -5700 0
-4413 5698 5700 0
4413 -5698 5700 0
4414 5700 0
5697 5700 0
-5695 5696 5699 5700 -5701 0
5695 -5696 -5699 5700 -5701 0
-5695 -5696 5701 0
-5695 -5699 5701 0
5695 5696 5701 0
5695 5699 5701 0
-5700 5701 0
5695 -5696 -5699 5700 -5702 0
-5695 -5696 -5699 -5700 -5702 0
-5695 5700 5702 0
5695 -5700 5702 0
5696 5702 0
5699 5702 0
1 -2 167 168 -5703 0
-1 2 167 -168 -5703 0
-1 -2 5703 0
-1 168 5703 0
1 2 5703 0
1 -168 5703 0
-167 5703 0
-1 2 167 -168 -5704 0
-1 -2 -167 -168 -5704 0
-2 167 5704 0
2 -167 5704 0
1 5704 0
168 5704 0
169 -170 5703 5704 -5705 0
-169 170 -5703 5704 -5705 0
-169 -170 5705 0
-169 5703 5705 0
169 170 5705 0
169 -5703 5705 0
-5704 5705 0
-169 170 -5703 5704 -5706 0
-169 -170 -5703 -5704 -5706 0
-170 5704 5706 0
170 -5704 5706 0
169 5706 0
5703 5706 0
179 -180 195 196 -5707 0
-179 180 195 -196 -5707 0
-179 -180 5707 0
-179 196 5707 0
179 180 5707 0
179 -196 5707 0
-195 5707 0
-179 180 195 -196 -5708 0
-179 -180 -195 -196 -5708 0
-180 195 5708 0
180 -195 5708 0
179 5708 0
196 5708 0
-4415 4416 5707 5708 -5709 0
4415 -4416 -5707 5708 -5709 0
-4415 -4416 5709 0
-4415 -5707 5709 0
4415 4416 5709 0
4415 5707 5709 0
-5708 5709 0
4415 -4416 -5707 5708 -5710 0
-4415 -4416 -5707 -5708 -5710 0
-4415 5708 5710 0
4415 -5708 5710 0
4416 5710 0
5707 5710 0
-5705 5706 5709 5710 -5711 0
5705 -5706 -5709 5710 -5711 0
-5705 -5706 5711 0
-5705 -5709 5711 0
5705 5706 5711 0
5705 5709 5711 0
-5710 5711 0
5705 -5706 -5709 5710 -5712 0
-5705 -5706 -5709 -5710 -5712 0
-5705 5710 5712 0
5705 -5710 5712 0
5706 5712 0
5709 5712 0
1 -2 143 144 -5713 0
-1 2 143 -144 -5713 0
-1 -2 5713 0
-1 144 5713 0
1 2 5713 0
1 -144 5713 0
-143 5713 0
-1 2 143 -144 -5714 0
-1 -2 -143 -144 -5714 0
-2 143 5714 0
2 -143 5714 0
1 5714 0
144 5714 0
167 -168 5713 5714 -5715 0
-167 168 -5713 5714 -5715 0
-167 -168 5715 0
-167 5713 5715 0
167 168 5715 0
167 -5713 5715 0
-5714 5715 0
-167 168 -5713 5714 -5716 0
-167 -168 -5713 -5714 -5716 0
-168 5714 5716 0
168 -5714 5716 0
167 5716 0
5713 5716 0
169 -170 179 180 -5717 0
-169 170 179 -180 -5717 0
-169 -170 5717 0
-169 180 5717 0
169 170 5717 0
169 -180 5717 0
-179 5717 0
-169 170 179 -180 -5718 0
-169 -170 -179 -180 -5718 0
-170 179 5718 0
170 -179 5718 0
169 5718 0
180 5718 0
-4415 4416 5717 5718 -5719 0
4415 -4416 -5717 5718 -5719 0
-4415 -4416 5719 0
-4415 -5717 5719 0
4415 4416 5719 0
4415 5717 5719 0
-5718 5719 0
4415 -4416 -5717 5718 -5720 0
-4415 -4416 -5717 -5718 -5720 0
-4415 5718 5720 0
4415 -5718 5720 0
4416 5720 0
5717 5720 0
-5715 5716 5719 5720 -5721 0
5715 -5716 -5719 5720 -5721 0
-5715 -5716 5721 0
-5715 -5719 5721 0
5715 5716 5721 0
5715 5719 5721 0
-5720 5721 0
5715 -5716 -5719 5720 -5722 0
-5715 -5716 -5719 -5720 -5722 0
-5715 5720 5722 0
5715 -5720 5722 0
5716 5722 0
5719 5722 0
1 -2 167 168 -5723 0
-1 2 167 -168 -5723 0
-1 -2 5723 0
-1 168 5723 0
1 2 5723 0
1 -168 5723 0
-167 5723 0
-1 2 167 -168 -5724 0
-1 -2 -167 -168 -5724 0
-2 167 5724 0
2 -167 5724 0
1 5724 0
168 5724 0
169 -170 5723 5724 -5725 0
-169 170 -5723 5724 -5725 0
-169 -170 5725 0
-169 5723 5725 0
169 170 5725 0
169 -5723 5725 0
-5724 5725 0
-169 170 -5723 5724 -5726 0
-169 -170 -5723 -5724 -5726 0
-170 5724 5726 0
170 -5724 5726 0
169 5726 0
5723 5726 0
179 -180 195 196 -5727 0
-179 180 195 -196 -5727 0
-179 -180 5727 0
-179 196 5727 0
179 180 5727 0
179 -196 5727 0
-195 5727 0
-179 180 195 -196 -5728 0
-179 -180 -195 -196 -5728 0
-180 195 5728 0
180 -195 5728 0
179 5728 0
196 5728 0
-4413 4414 5727 5728 -5729 0
4413 -4414 -5727 5728 -5729 0
-4413 -4414 5729 0
-4413 -5727 5729 0
4413 4414 5729 0
4413 5727 5729 0
-5728 5729 0
4413 -4414 -5727 5728 -5730 0
-4413 -4414 -5727 -5728 -5730 0
-4413 5728 5730 0
4413 -5728 5730 0
4414 5730 0
5727 5730 0
1 -2 143 144 -5731 0
-1 2 143 -144 -5731 0
-1 -2 5731 0
-1 144 5731 0
1 2 5731 0
1 -144 5731 0
-143 5731 0
-1 2 143 -144 -5732 0
-1 -2 -143 -144 -5732 0
-2 143 5732 0
2 -143 5732 0
1 5732 0
144 5732 0
167 -168 5731 5732 -5733 0
-167 168 -5731 5732 -5733 0
-167 -168 5733 0
-167 5731 5733 0
167 168 5733 0
167 -5731 5733 0
-5732 5733 0
-167 168 -5731 5732 -5734 0
-167 -168 -5731 -5732 -5734 0
-168 5732 5734 0
168 -5732 5734 0
167 5734 0
5731 5734 0
169 -170 179 180 -5735 0
-169 170 179 -180 -5735 0
-169 -170 5735 0
-169 180 5735 0
169 170 5735 0
169 -180 5735 0
-179 5735 0
-169 170 179 -180 -5736 0
-169 -170 -179 -180 -5736 0
-170 179 5736 0
170 -179 5736 0
169 5736 0
180 5736 0
-4413 4414 5735 5736 -5737 0
4413 -4414 -5735 5736 -5737 0
-4413 -4414 5737 0
-4413 -5735 5737 0
4413 4414 5737 0
4413 5735 5737 0
-5736 5737 0
4413 -4414 -5735 5736 -5738 0
-4413 -4414 -5735 -5736 -5738 0
-4413 5736 5738 0
4413 -5736 5738 0
4414 5738 0
5735 5738 0
-5733 5734 5737 5738 -5739 0
5733 -5734 -5737 5738 -5739 0
-5733 -5734 5739 0
-5733 -5737 5739 0
5733 5734 5739 0
5733 5737 5739 0
-5738 5739 0
5733 -5734 -5737 5738 -5740 0
-5733 -5734 -5737 -5738 -5740 0
-5733 5738 5740 0
5733 -5738 5740 0
5734 5740 0
5737 5740 0
1 -2 155 156 -5741 0
-1 2 155 -156 -5741 0
-1 -2 5741 0
-1 156 5741 0
1 2 5741 0
1 -156 5741 0
-155 5741 0
-1 2 155 -156 -5742 0
-1 -2 -155 -156 -5742 0
-2 155 5742 0
2 -155 5742 0
1 5742 0
156 5742 0
179 -180 5741 5742 -5743 0
-179 180 -5741 5742 -5743 0
-179 -180 5743 0
-179 5741 5743 0
179 180 5743 0
179 -5741 5743 0
-5742 5743 0
-179 180 -5741 5742 -5744 0
-179 -180 -5741 -5742 -5744 0
-180 5742 5744 0
180 -5742 5744 0
179 5744 0
5741 5744 0
195 -196 4415 4416 -5745 0
-195 196 -4415 4416 -5745 0
-195 -196 5745 0
-195 4415 5745 0
195 196 5745 0
195 -4415 5745 0
-4416 5745 0
-195 196 -4415 4416 -5746 0
-195 -196 -4415 -4416 -5746 0
-196 4416 5746 0
196 -4416 5746 0
195 5746 0
4415 5746 0
-5743 5744 5745 5746 -5747 0
5743 -5744 -5745 5746 -5747 0
-5743 -5744 5747 0
-5743 -5745 5747 0
5743 5744 5747 0
5743 5745 5747 0
-5746 5747 0
5743 -5744 -5745 5746 -5748 0
-5743 -5744 -5745 -5746 -5748 0
-5743 5746 5748 0
5743 -5746 5748 0
5744 5748 0
5745 5748 0
1 -2 143 144 -5749 0
-1 2 143 -144 -5749 0
-1 -2 5749 0
-1 144 5749 0
1 2 5749 0
1 -144 5749 0
-143 5749 0
-1 2 143 -144 -5750 0
-1 -2 -143 -144 -5750 0
-2 143 5750 0
2 -143 5750 0
1 5750 0
144 5750 0
155 -156 5749 5750 -5751 0
-155 156 -5749 5750 -5751 0
-155 -156 5751 0
-155 5749 5751 0
155 156 5751 0
155 -5749 5751 0
-5750 5751 0
-155 156 -5749 5750 -5752 0
-155 -156 -5749 -5750 -5752 0
-156 5750 5752 0
156 -5750 5752 0
155 5752 0
5749 5752 0
179 -180 4415 4416 -5753 0
-179 180 -4415 4416 -5753 0
-179 -180 5753 0
-179 4415 5753 0
179 180 5753 0
179 -4415 5753 0
-4416 5753 0
-179 180 -4415 4416 -5754 0
-179 -180 -4415 -4416 -5754 0
-180 4416 5754 0
180 -4416 5754 0
179 5754 0
4415 5754 0
-5751 5752 5753 5754 -5755 0
5751 -5752 -5753 5754 -5755 0
-5751 -5752 5755 0
-5751 -5753 5755 0
5751 5752 5755 0
5751 5753 5755 0
-5754 5755 0
5751 -5752 -5753 5754 -5756 0
-5751 -5752 -5753 -5754 -5756 0
-5751 5754 5756 0
5751 -5754 5756 0
5752 5756 0
5753 5756 0
1 -2 155 156 -5757 0
-1 2 155 -156 -5757 0
-1 -2 5757 0
-1 156 5757 0
1 2 5757 0
1 -156 5757 0
-155 5757 0
-1 2 155 -156 -5758 0
-1 -2 -155 -156 -5758 0
-2 155 5758 0
2 -155 5758 0
1 5758 0
156 5758 0
179 -180 5757 5758 -5759 0
-179 180 -5757 5758 -5759 0
-179 -180 5759 0
-179 5757 5759 0
179 180 5759 0
179 -5757 5759 0
-5758 5759 0
-179 180 -5757 5758 -5760 0
-179 -180 -5757 -5758 -5760 0
-180 5758 5760 0
180 -5758 5760 0
179 5760 0
5757 5760 0
195 -196 4413 4414 -5761 0
-195 196 -4413 4414 -5761 0
-195 -196 5761 0
-195 4413 5761 0
195 196 5761 0
195 -4413 5761 0
-4414 5761 0
-195 196 -4413 4414 -5762 0
-195 -196 -4413 -4414 -5762 0
-196 4414 5762 0
196 -4414 5762 0
195 5762 0
4413 5762 0
-5759 5760 5761 5762 -5763 0
5759 -5760 -5761 5762 -5763 0
-5759 -5760 5763 0
-5759 -5761 5763 0
5759 5760 5763 0
5759 5761 5763 0
-5762 5763 0
5759 -5760 -5761 5762 -5764 0
-5759 -5760 -5761 -5762 -5764 0
-5759 5762 5764 0
5759 -5762 5764 0
5760 5764 0
5761 5764 0
1 -2 143 144 -5765 0
-1 2 143 -144 -5765 0
-1 -2 5765 0
-1 144 5765 0
1 2 5765 0
1 -144 5765 0
-143 5765 0
-1 2 143 -144 -5766 0
-1 -2 -143 -144 -5766 0
-2 143 5766 0
2 -143 5766 0
1 5766 0
144 5766 0
155 -156 5765 5766 -5767 0
-155 156 -5765 5766 -5767 0
-155 -156 5767 0
-155 5765 5767 0
155 156 5767 0
155 -5765 5767 0
-5766 5767 0
-155 156 -5765 5766 -5768 0
-155 -156 -5765 -5766 -5768 0
-156 5766 5768 0
156 -5766 5768 0
155 5768 0
5765 5768 0
179 -180 4413 4414 -5769 0
-179 180 -4413 4414 -5769 0
-179 -180 5769 0
-179 4413 5769 0
179 180 5769 0
179 -4413 5769 0
-4414 5769 0
-179 180 -4413 4414 -5770 0
-179 -180 -4413 -4414 -5770 0
-180 4414 5770 0
180 -4414 5770 0
179 5770 0
4413 5770 0
-5767 5768 5769 5770 -5771 0
5767 -5768 -5769 5770 -5771 0
-5767 -5768 5771 0
-5767 -5769 5771 0
5767 5768 5771 0
5767 5769 5771 0
-5770 5771 0
5767 -5768 -5769 5770 -5772 0
-5767 -5768 -5769 -5770 -5772 0
-5767 5770 5772 0
5767 -5770 5772 0
5768 5772 0
5769 5772 0
1 -2 167 168 -5773 0
-1 2 167 -168 -5773 0
-1 -2 5773 0
-1 168 5773 0
1 2 5773 0
1 -168 5773 0
-167 5773 0
-1 2 167 -168 -5774 0
-1 -2 -167 -168 -5774 0
-2 167 5774 0
2 -167 5774 0
1 5774 0
168 5774 0
171 -172 5773 5774 -5775 0
-171 172 -5773 5774 -5775 0
-171 -172 5775 0
-171 5773 5775 0
171 172 5775 0
171 -5773 5775 0
-5774 5775 0
-171 172 -5773 5774 -5776 0
-171 -172 -5773 -5774 -5776 0
-172 5774 5776 0
172 -5774 5776 0
171 5776 0
5773 5776 0
195 -196 4415 4416 -5777 0
-195 196 -4415 4416 -5777 0
-195 -196 5777 0
-195 4415 5777 0
195 196 5777 0
195 -4415 5777 0
-4416 5777 0
-195 196 -4415 4416 -5778 0
-195 -196 -4415 -4416 -5778 0
-196 4416 5778 0
196 -4416 5778 0
195 5778 0
4415 5778 0
-5775 5776 5777 5778 -5779 0
5775 -5776 -5777 5778 -5779 0
-5775 -5776 5779 0
-5775 -5777 5779 0
5775 5776 5779 0
5775 5777 5779 0
-5778 5779 0
5775 -5776 -5777 5778 -5780 0
-5775 -5776 -5777 -5778 -5780 0
-5775 5778 5780 0
5775 -5778 5780 0
5776 5780 0
5777 5780 0
1 -2 143 144 -5781 0
-1 2 143 -144 -5781 0
-1 -2 5781 0
-1 144 5781 0
1 2 5781 0
1 -144 5781 0
-143 5781 0
-1 2 143 -144 -5782 0
-1 -2 -143 -144 -5782 0
-2 143 5782 0
2 -143 5782 0
1 5782 0
144 5782 0
167 -168 5781 5782 -5783 0
-167 168 -5781 5782 -5783 0
-167 -168 5783 0
-167 5781 5783 0
167 168 5783 0
167 -5781 5783 0
-5782 5783 0
-167 168 -5781 5782 -5784 0
-167 -168 -5781 -5782 -5784 0
-168 5782 5784 0
168 -5782 5784 0
167 5784 0
5781 5784 0
171 -172 4415 4416 -5785 0
-171 172 -4415 4416 -5785 0
-171 -172 5785 0
-171 4415 5785 0
171 172 5785 0
171 -4415 5785 0
-4416 5785 0
-171 172 -4415 4416 -5786 0
-171 -172 -4415 -4416 -5786 0
-172 4416 5786 0
172 -4416 5786 0
171 5786 0
4415 5786 0
1 -2 167 168 -5787 0
-1 2 167 -168 -5787 0
-1 -2 5787 0
-1 168 5787 0
1 2 5787 0
1 -168 5787 0
-167 5787 0
-1 2 167 -168 -5788 0
-1 -2 -167 -168 -5788 0
-2 167 5788 0
2 -167 5788 0
1 5788 0
168 5788 0
171 -172 5787 5788 -5789 0
-171 172 -5787 5788 -5789 0
-171 -172 5789 0
-171 5787 5789 0
171 172 5789 0
171 -5787 5789 0
-5788 5789 0
-171 172 -5787 5788 -5790 0
-171 -172 -5787 -5788 -5790 0
-172 5788 5790 0
172 -5788 5790 0
171 5790 0
5787 5790 0
195 -196 4413 4414 -5791 0
-195 196 -4413 4414 -5791 0
-195 -196 5791 0
-195 4413 5791 0
195 196 5791 0
195 -4413 5791 0
-4414 5791 0
-195 196 -4413 4414 -5792 0
-195 -196 -4413 -4414 -5792 0
-196 4414 5792 0
196 -4414 5792 0
195 5792 0
4413 5792 0
-5789 5790 5791 5792 -5793 0
5789 -5790 -5791 5792 -5793 0
-5789 -5790 5793 0
-5789 -5791 5793 0
5789 5790 5793 0
5789 5791 5793 0
-5792 5793 0
5789 -5790 -5791 5792 -5794 0
-5789 -5790 -5791 -5792 -5794 0
-5789 5792 5794 0
5789 -5792 5794 0
5790 5794 0
5791 5794 0
1 -2 143 144 -5795 0
-1 2 143 -144 -5795 0
-1 -2 5795 0
-1 144 5795 0
1 2 5795 0
1 -144 5795 0
-143 5795 0
-1 2 143 -144 -5796 0
-1 -2 -143 -144 -5796 0
-2 143 5796 0
2 -143 5796 0
1 5796 0
144 5796 0
167 -168 5795 5796 -5797 0
-167 168 -5795 5796 -5797 0
-167 -168 5797 0
-167 5795 5797 0
167 168 5797 0
167 -5795 5797 0
-5796 5797 0
-167 168 -5795 5796 -5798 0
-167 -168 -5795 -5796 -5798 0
-168 5796 5798 0
168 -5796 5798 0
167 5798 0
5795 5798 0
171 -172 4413 4414 -5799 0
-171 172 -4413 4414 -5799 0
-171 -172 5799 0
-171 4413 5799 0
171 172 5799 0
171 -4413 5799 0
-4414 5799 0
-171 172 -4413 4414 -5800 0
-171 -172 -4413 -4414 -5800 0
-172 4414 5800 0
172 -4414 5800 0
171 5800 0
4413 5800 0
-5797 5798 5799 5800 -5801 0
5797 -5798 -5799 5800 -5801 0
-5797 -5798 5801 0
-5797 -5799 5801 0
5797 5798 5801 0
5797 5799 5801 0
-5800 5801 0
5797 -5798 -5799 5800 -5802 0
-5797 -5798 -5799 -5800 -5802 0
-5797 5800 5802 0
5797 -5800 5802 0
5798 5802 0
5799 5802 0
1 -2 155 156 -5803 0
-1 2 155 -156 -5803 0
-1 -2 5803 0
-1 156 5803 0
1 2 5803 0
1 -156 5803 0
-155 5803 0
-1 2 155 -156 -5804 0
-1 -2 -155 -156 -5804 0
-2 155 5804 0
2 -155 5804 0
1 5804 0
156 5804 0
171 -172 5803 5804 -5805 0
-171 172 -5803 5804 -5805 0
-171 -172 5805 0
-171 5803 5805 0
171 172 5805 0
171 -5803 5805 0
-5804 5805 0
-171 172 -5803 5804 -5806 0
-171 -172 -5803 -5804 -5806 0
-172 5804 5806 0
172 -5804 5806 0
171 5806 0
5803 5806 0
195 -196 4415 4416 -5807 0
-195 196 -4415 4416 -5807 0
-195 -196 5807 0
-195 4415 5807 0
195 196 5807 0
195 -4415 5807 0
-4416 5807 0
-195 196 -4415 4416 -5808 0
-195 -196 -4415 -4416 -5808 0
-196 4416 5808 0
196 -4416 5808 0
195 5808 0
4415 5808 0
-5805 5806 5807 5808 -5809 0
5805 -5806 -5807 5808 -5809 0
-5805 -5806 5809 0
-5805 -5807 5809 0
5805 5806 5809 0
5805 5807 5809 0
-5808 5809 0
5805 -5806 -5807 5808 -5810 0
-5805 -5806 -5807 -5808 -5810 0
-5805 5808 5810 0
5805 -5808 5810 0
5806 5810 0
5807 5810 0
1 -2 143 144 -5811 0
-1 2 143 -144 -5811 0
-1 -2 5811 0
-1 144 5811 0
1 2 5811 0
1 -144 5811 0
-143 5811 0
-1 2 143 -144 -5812 0
-1 -2 -143 -144 -5812 0
-2 143 5812 0
2 -143 5812 0
1 5812 0
144 5812 0
155 -156 5811 5812 -5813 0
-155 156 -5811 5812 -5813 0
-155 -156 5813 0
-155 5811 5813 0
155 156 5813 0
155 -5811 5813 0
-5812 5813 0
-155 156 -5811 5812 -5814 0
-155 -156 -5811 -5812 -5814 0
-156 5812 5814 0
156 -5812 5814 0
155 5814 0
5811 5814 0
171 -172 4415 4416 -5815 0
-171 172 -4415 4416 -5815 0
-171 -172 5815 0
-171 4415 5815 0
171 172 5815 0
171 -4415 5815 0
-4416 5815 0
-171 172 -4415 4416 -5816 0
-171 -172 -4415 -4416 -5816 0
-172 4416 5816 0
172 -4416 5816 0
171 5816 0
4415 5816 0
-5813 5814 5815 5816 -5817 0
5813 -5814 -5815 5816 -5817 0
-5813 -5814 5817 0
-5813 -5815 5817 0
5813 5814 5817 0
5813 5815 5817 0
-5816 5817 0
5813 -5814 -5815 5816 -5818 0
-5813 -5814 -5815 -5816 -5818 0
-5813 5816 5818 0
5813 -5816 5818 0
5814 5818 0
5815 5818 0
1 -2 155 156 -5819 0
-1 2 155 -156 -5819 0
-1 -2 5819 0
-1 156 5819 0
1 2 5819 0
1 -156 5819 0
-155 5819 0
-1 2 155 -156 -5820 0
-1 -2 -155 -156 -5820 0
-2 155 5820 0
2 -155 5820 0
1 5820 0
156 5820 0
171 -172 5819 5820 -5821 0
-171 172 -5819 5820 -5821 0
-171 -172 5821 0
-171 5819 5821 0
171 172 5821 0
171 -5819 5821 0
-5820 5821 0
-171 172 -5819 5820 -5822 0
-171 -172 -5819 -5820 -5822 0
-172 5820 5822 0
172 -5820 5822 0
171 5822 0
5819 5822 0
195 -196 4413 4414 -5823 0
-195 196 -4413 4414 -5823 0
-195 -196 5823 0
-195 4413 5823 0
195 196 5823 0
195 -4413 5823 0
-4414 5823 0
-195 196 -4413 4414 -5824 0
-195 -196 -4413 -4414 -5824 0
-196 4414 5824 0
196 -4414 5824 0
195 5824 0
4413 5824 0
-5821 5822 5823 5824 -5825 0
5821 -5822 -5823 5824 -5825 0
-5821 -5822 5825 0
-5821 -5823 5825 0
5821 5822 5825 0
5821 5823 5825 0
-5824 5825 0
5821 -5822 -5823 5824 -5826 0
-5821 -5822 -5823 -5824 -5826 0
-5821 5824 5826 0
5821 -5824 5826 0
5822 5826 0
5823 5826 0
1 -2 143 144 -5827 0
-1 2 143 -144 -5827 0
-1 -2 5827 0
-1 144 5827 0
1 2 5827 0
1 -144 5827 0
-143 5827 0
-1 2 143 -144 -5828 0
-1 -2 -143 -144 -5828 0
-2 143 5828 0
2 -143 5828 0
1 5828 0
144 5828 0
155 -156 5827 5828 -5829 0
-155 156 -5827 5828 -5829 0
-155 -156 5829 0
-155 5827 5829 0
155 156 5829 0
155 -5827 5829 0
-5828 5829 0
-155 156 -5827 5828 -5830 0
-155 -156 -5827 -5828 -5830 0
-156 5828 5830 0
156 -5828 5830 0
155 5830 0
5827 5830 0
171 -172 4413 4414 -5831 0
-171 172 -4413 4414 -5831 0
-171 -172 5831 0
-171 4413 5831 0
171 172 5831 0
171 -4413 5831 0
-4414 5831 0
-171 172 -4413 4414 -5832 0
-171 -172 -4413 -4414 -5832 0
-172 4414 5832 0
172 -4414 5832 0
171 5832 0
4413 5832 0
-5829 5830 5831 5832 -5833 0
5829 -5830 -5831 5832 -5833 0
-5829 -5830 5833 0
-5829 -5831 5833 0
5829 5830 5833 0
5829 5831 5833 0
-5832 5833 0
5829 -5830 -5831 5832 -5834 0
-5829 -5830 -5831 -5832 -5834 0
-5829 5832 5834 0
5829 -5832 5834 0
5830 5834 0
5831 5834 0
1 -2 155 156 -5835 0
-1 2 155 -156 -5835 0
-1 -2 5835 0
-1 156 5835 0
1 2 5835 0
1 -156 5835 0
-155 5835 0
-1 2 155 -156 -5836 0
-1 -2 -155 -156 -5836 0
-2 155 5836 0
2 -155 5836 0
1 5836 0
156 5836 0
169 -170 5835 5836 -5837 0
-169 170 -5835 5836 -5837 0
-169 -170 5837 0
-169 5835 5837 0
169 170 5837 0
169 -5835 5837 0
-5836 5837 0
-169 170 -5835 5836 -5838 0
-169 -170 -5835 -5836 -5838 0
-170 5836 5838 0
170 -5836 5838 0
169 5838 0
5835 5838 0
195 -196 4415 4416 -5839 0
-195 196 -4415 4416 -5839 0
-195 -196 5839 0
-195 4415 5839 0
195 196 5839 0
195 -4415 5839 0
-4416 5839 0
-195 196 -4415 4416 -5840 0
-195 -196 -4415 -4416 -5840 0
-196 4416 5840 0
196 -4416 5840 0
195 5840 0
4415 5840 0
1 -2 143 144 -5841 0
-1 2 143 -144 -5841 0
-1 -2 5841 0
-1 144 5841 0
1 2 5841 0
1 -144 5841 0
-143 5841 0
-1 2 143 -144 -5842 0
-1 -2 -143 -144 -5842 0
-2 143 5842 0
2 -143 5842 0
1 5842 0
144 5842 0
155 -156 5841 5842 -5843 0
-155 156 -5841 5842 -5843 0
-155 -156 5843 0
-155 5841 5843 0
155 156 5843 0
155 -5841 5843 0
-5842 5843 0
-155 156 -5841 5842 -5844 0
-155 -156 -5841 -5842 -5844 0
-156 5842 5844 0
156 -5842 5844 0
155 5844 0
5841 5844 0
169 -170 4415 4416 -5845 0
-169 170 -4415 4416 -5845 0
-169 -170 5845 0
-169 4415 5845 0
169 170 5845 0
169 -4415 5845 0
-4416 5845 0
-169 170 -4415 4416 -5846 0
-169 -170 -4415 -4416 -5846 0
-170 4416 5846 0
170 -4416 5846 0
169 5846 0
4415 5846 0
-5843 5844 5845 5846 -5847 0
5843 -5844 -5845 5846 -5847 0
-5843 -5844 5847 0
-5843 -5845 5847 0
5843 5844 5847 0
5843 5845 5847 0
-5846 5847 0
5843 -5844 -5845 5846 -5848 0
-5843 -5844 -5845 -5846 -5848 0
-5843 5846 5848 0
5843 -5846 5848 0
5844 5848 0
5845 5848 0
1 -2 155 156 -5849 0
-1 2 155 -156 -5849 0
-1 -2 5849 0
-1 156 5849 0
1 2 5849 0
1 -156 5849 0
-155 5849 0
-1 2 155 -156 -5850 0
-1 -2 -155 -156 -5850 0
-2 155 5850 0
2 -155 5850 0
1 5850 0
156 5850 0
169 -170 5849 5850 -5851 0
-169 170 -5849 5850 -5851 0
-169 -170 5851 0
-169 5849 5851 0
169 170 5851 0
169 -5849 5851 0
-5850 5851 0
-169 170 -5849 5850 -5852 0
-169 -170 -5849 -5850 -5852 0
-170 5850 5852 0
170 -5850 5852 0
169 5852 0
5849 5852 0
195 -196 4413 4414 -5853 0
-195 196 -4413 4414 -5853 0
-195 -196 5853 0
-195 4413 5853 0
195 196 5853 0
195 -4413 5853 0
-4414 5853 0
-195 196 -4413 4414 -5854 0
-195 -196 -4413 -4414 -5854 0
-196 4414 5854 0
196 -4414 5854 0
195 5854 0
4413 5854 0
-5851 5852 5853 5854 -5855 0
5851 -5852 -5853 5854 -5855 0
-5851 -5852 5855 0
-5851 -5853 5855 0
5851 5852 5855 0
5851 5853 5855 0
-5854 5855 0
5851 -5852 -5853 5854 -5856 0
-5851 -5852 -5853 -5854 -5856 0
-5851 5854 5856 0
5851 -5854 5856 0
5852 5856 0
5853 5856 0
1 -2 143 144 -5857 0
-1 2 143 -144 -5857 0
-1 -2 5857 0
-1 144 5857 0
1 2 5857 0
1 -144 5857 0
-143 5857 0
-1 2 143 -144 -5858 0
-1 -2 -143 -144 -5858 0
-2 143 5858 0
2 -143 5858 0
1 5858 0
144 5858 0
155 -156 5857 5858 -5859 0
-155 156 -5857 5858 -5859 0
-155 -156 5859 0
-155 5857 5859 0
155 156 5859 0
155 -5857 5859 0
-5858 5859 0
-155 156 -5857 5858 -5860 0
-155 -156 -5857 -5858 -5860 0
-156 5858 5860 0
156 -5858 5860 0
155 5860 0
5857 5860 0
169 -170 4413 4414 -5861 0
-169 170 -4413 4414 -5861 0
-169 -170 5861 0
-169 4413 5861 0
169 170 5861 0
169 -4413 5861 0
-4414 5861 0
-169 170 -4413 4414 -5862 0
-169 -170 -4413 -4414 -5862 0
-170 4414 5862 0
170 -4414 5862 0
169 5862 0
4413 5862 0
-5859 5860 5861 5862 -5863 0
5859 -5860 -5861 5862 -5863 0
-5859 -5860 5863 0
-5859 -5861 5863 0
5859 5860 5863 0
5859 5861 5863 0
-5862 5863 0
5859 -5860 -5861 5862 -5864 0
-5859 -5860 -5861 -5862 -5864 0
-5859 5862 5864 0
5859 -5862 5864 0
5860 5864 0
5861 5864 0
1 -2 155 156 -5865 0
-1 2 155 -156 -5865 0
-1 -2 5865 0
-1 156 5865 0
1 2 5865 0
1 -156 5865 0
-155 5865 0
-1 2 155 -156 -5866 0
-1 -2 -155 -156 -5866 0
-2 155 5866 0
2 -155 5866 0
1 5866 0
156 5866 0
167 -168 5865 5866 -5867 0
-167 168 -5865 5866 -5867 0
-167 -168 5867 0
-167 5865 5867 0
167 168 5867 0
167 -5865 5867 0
-5866 5867 0
-167 168 -5865 5866 -5868 0
-167 -168 -5865 -5866 -5868 0
-168 5866 5868 0
168 -5866 5868 0
167 5868 0
5865 5868 0
195 -196 4415 4416 -5869 0
-195 196 -4415 4416 -5869 0
-195 -196 5869 0
-195 4415 5869 0
195 196 5869 0
195 -4415 5869 0
-4416 5869 0
-195 196 -4415 4416 -5870 0
-195 -196 -4415 -4416 -5870 0
-196 4416 5870 0
196 -4416 5870 0
195 5870 0
4415 5870 0
-5867 5868 5869 5870 -5871 0
5867 -5868 -5869 5870 -5871 0
-5867 -5868 5871 0
-5867 -5869 5871 0
5867 5868 5871 0
5867 5869 5871 0
-5870 5871 0
5867 -5868 -5869 5870 -5872 0
-5867 -5868 -5869 -5870 -5872 0
-5867 5870 5872 0
5867 -5870 5872 0
5868 5872 0
5869 5872 0
1 -2 143 144 -5873 0
-1 2 143 -144 -5873 0
-1 -2 5873 0
-1 144 5873 0
1 2 5873 0
1 -144 5873 0
-143 5873 0
-1 2 143 -144 -5874 0
-1 -2 -143 -144 -5874 0
-2 143 5874 0
2 -143 5874 0
1 5874 0
144 5874 0
155 -156 5873 5874 -5875 0
-155 156 -5873 5874 -5875 0
-155 -156 5875 0
-155 5873 5875 0
155 156 5875 0
155 -5873 5875 0
-5874 5875 0
-155 156 -5873 5874 -5876 0
-155 -156 -5873 -5874 -5876 0
-156 5874 5876 0
156 -5874 5876 0
155 5876 0
5873 5876 0
167 -168 4415 4416 -5877 0
-167 168 -4415 4416 -5877 0
-167 -168 5877 0
-167 4415 5877 0
167 168 5877 0
167 -4415 5877 0
-4416 5877 0
-167 168 -4415 4416 -5878 0
-167 -168 -4415 -4416 -5878 0
-168 4416 5878 0
168 -4416 5878 0
167 5878 0
4415 5878 0
-5875 5876 5877 5878 -5879 0
5875 -5876 -5877 5878 -5879 0
-5875 -5876 5879 0
-5875 -5877 5879 0
5875 5876 5879 0
5875 5877 5879 0
-5878 5879 0
5875 -5876 -5877 5878 -5880 0
-5875 -5876 -5877 -5878 -5880 0
-5875 5878 5880 0
5875 -5878 5880 0
5876 5880 0
5877 5880 0
1 -2 155 156 -5881 0
-1 2 155 -156 -5881 0
-1 -2 5881 0
-1 156 5881 0
1 2 5881 0
1 -156 5881 0
-155 5881 0
-1 2 155 -156 -5882 0
-1 -2 -155 -156 -5882 0
-2 155 5882 0
2 -155 5882 0
1 5882 0
156 5882 0
167 -168 5881 5882 -5883 0
-167 168 -5881 5882 -5883 0
-167 -168 5883 0
-167 5881 5883 0
167 168 5883 0
167 -5881 5883 0
-5882 5883 0
-167 168 -5881 5882 -5884 0
-167 -168 -5881 -5882 -5884 0
-168 5882 5884 0
168 -5882 5884 0
167 5884 0
5881 5884 0
195 -196 4413 4414 -5885 0
-195 196 -4413 4414 -5885 0
-195 -196 5885 0
-195 4413 5885 0
195 196 5885 0
195 -4413 5885 0
-4414 5885 0
-195 196 -4413 4414 -5886 0
-195 -196 -4413 -4414 -5886 0
-196 4414 5886 0
196 -4414 5886 0
195 5886 0
4413 5886 0
-5883 5884 5885 5886 -5887 0
5883 -5884 -5885 5886 -5887 0
-5883 -5884 5887 0
-5883 -5885 5887 0
5883 5884 5887 0
5883 5885 5887 0
-5886 5887 0
5883 -5884 -5885 5886 -5888 0
-5883 -5884 -5885 -5886 -5888 0
-5883 5886 5888 0
5883 -5886 5888 0
5884 5888 0
5885 5888 0
1 -2 143 144 -5889 0
-1 2 143 -144 -5889 0
-1 -2 5889 0
-1 144 5889 0
1 2 5889 0
1 -144 5889 0
-143 5889 0
-1 2 143 -144 -5890 0
-1 -2 -143 -144 -5890 0
-2 143 5890 0
2 -143 5890 0
1 5890 0
144 5890 0
155 -156 5889 5890 -5891 0
-155 156 -5889 5890 -5891 0
-155 -156 5891 0
-155 5889 5891 0
155 156 5891 0
155 -5889 5891 0
-5890 5891 0
-155 156 -5889 5890 -5892 0
-155 -156 -5889 -5890 -5892 0
-156 5890 5892 0
156 -5890 5892 0
155 5892 0
5889 5892 0
167 -168 4413 4414 -5893 0
-167 168 -4413 4414 -5893 0
-167 -168 5893 0
-167 4413 5893 0
167 168 5893 0
167 -4413 5893 0
-4414 5893 0
-167 168 -4413 4414 -5894 0
-167 -168 -4413 -4414 -5894 0
-168 4414 5894 0
168 -4414 5894 0
167 5894 0
4413 5894 0
205 -206 259 260 -5895 0
-205 206 259 -260 -5895 0
-205 -206 5895 0
-205 260 5895 0
205 206 5895 0
205 -260 5895 0
-259 5895 0
-205 206 259 -260 -5896 0
-205 -206 -259 -260 -5896 0
-206 259 5896 0
206 -259 5896 0
205 5896 0
260 5896 0
-4215 4216 4217 4218 -5897 0
4215 -4216 -4217 4218 -5897 0
-4215 -4216 5897 0
-4215 -4217 5897 0
4215 4216 5897 0
4215 4217 5897 0
-4218 5897 0
4215 -4216 -4217 4218 -5898 0
-4215 -4216 -4217 -4218 -5898 0
-4215 4218 5898 0
4215 -4218 5898 0
4216 5898 0
4217 5898 0
37 -38 197 198 -5899 0
-37 38 197 -198 -5899 0
-37 -38 5899 0
-37 198 5899 0
37 38 5899 0
37 -198 5899 0
-197 5899 0
-37 38 197 -198 -5900 0
-37 -38 -197 -198 -5900 0
-38 197 5900 0
38 -197 5900 0
37 5900 0
198 5900 0
135 -136 139 140 -5901 0
-135 136 139 -140 -5901 0
-135 -136 5901 0
-135 140 5901 0
135 136 5901 0
135 -140 5901 0
-139 5901 0
-135 136 139 -140 -5902 0
-135 -136 -139 -140 -5902 0
-136 139 5902 0
136 -139 5902 0
135 5902 0
140 5902 0
141 -142 171 172 -5903 0
-141 142 171 -172 -5903 0
-141 -142 5903 0
-141 172 5903 0
141 142 5903 0
141 -172 5903 0
-171 5903 0
-141 142 171 -172 -5904 0
-141 -142 -171 -172 -5904 0
-142 171 5904 0
142 -171 5904 0
141 5904 0
172 5904 0
179 -180 185 186 -5905 0
-179 180 185 -186 -5905 0
-179 -180 5905 0
-179 186 5905 0
179 180 5905 0
179 -186 5905 0
-185 5905 0
-179 180 185 -186 -5906 0
-179 -180 -185 -186 -5906 0
-180 185 5906 0
180 -185 5906 0
179 5906 0
186 5906 0
135 -136 139 140 -5907 0
-135 136 139 -140 -5907 0
-135 -136 5907 0
-135 140 5907 0
135 136 5907 0
135 -140 5907 0
-139 5907 0
-135 136 139 -140 -5908 0
-135 -136 -139 -140 -5908 0
-136 139 5908 0
136 -139 5908 0
135 5908 0
140 5908 0
141 -142 171 172 -5909 0
-141 142 171 -172 -5909 0
-141 -142 5909 0
-141 172 5909 0
141 142 5909 0
141 -172 5909 0
-171 5909 0
-141 142 171 -172 -5910 0
-141 -142 -171 -172 -5910 0
-142 171 5910 0
142 -171 5910 0
141 5910 0
172 5910 0
179 -180 185 186 -5911 0
-179 180 185 -186 -5911 0
-179 -180 5911 0
-179 186 5911 0
179 180 5911 0
179 -186 5911 0
-185 5911 0
-179 180 185 -186 -5912 0
-179 -180 -185 -186 -5912 0
-180 185 5912 0
180 -185 5912 0
179 5912 0
186 5912 0
135 -136 139 140 -5913 0
-135 136 139 -140 -5913 0
-135 -136 5913 0
-135 140 5913 0
135 136 5913 0
135 -140 5913 0
-139 5913 0
-135 136 139 -140 -5914 0
-135 -136 -139 -140 -5914 0
-136 139 5914 0
136 -139 5914 0
135 5914 0
140 5914 0
141 -142 167 168 -5915 0
-141 142 167 -168 -5915 0
-141 -142 5915 0
-141 168 5915 0
141 142 5915 0
141 -168 5915 0
-167 5915 0
-141 142 167 -168 -5916 0
-141 -142 -167 -168 -5916 0
-142 167 5916 0
142 -167 5916 0
141 5916 0
168 5916 0
179 -180 185 186 -5917 0
-179 180 185 -186 -5917 0
-179 -180 5917 0
-179 186 5917 0
179 180 5917 0
179 -186 5917 0
-185 5917 0
-179 180 185 -186 -5918 0
-179 -180 -185 -186 -5918 0
-180 185 5918 0
180 -185 5918 0
179 5918 0
186 5918 0
135 -136 139 140 -5919 0
-135 136 139 -140 -5919 0
-135 -136 5919 0
-135 140 5919 0
135 136 5919 0
135 -140 5919 0
-139 5919 0
-135 136 139 -140 -5920 0
-135 -136 -139 -140 -5920 0
-136 139 5920 0
136 -139 5920 0
135 5920 0
140 5920 0
141 -142 167 168 -5921 0
-141 142 167 -168 -5921 0
-141 -142 5921 0
-141 168 5921 0
141 142 5921 0
141 -168 5921 0
-167 5921 0
-141 142 167 -168 -5922 0
-141 -142 -167 -168 -5922 0
-142 167 5922 0
142 -167 5922 0
141 5922 0
168 5922 0
179 -180 185 186 -5923 0
-179 180 185 -186 -5923 0
-179 -180 5923 0
-179 186 5923 0
179 180 5923 0
179 -186 5923 0
-185 5923 0
-179 180 185 -186 -5924 0
-179 -180 -185 -186 -5924 0
-180 185 5924 0
180 -185 5924 0
179 5924 0
186 5924 0
135 -136 139 140 -5925 0
-135 136 139 -140 -5925 0
-135 -136 5925 0
-135 140 5925 0
135 136 5925 0
135 -140 5925 0
-139 5925 0
-135 136 139 -140 -5926 0
-135 -136 -139 -140 -5926 0
-136 139 5926 0
136 -139 5926 0
135 5926 0
140 5926 0
155 -156 171 172 -5927 0
-155 156 171 -172 -5927 0
-155 -156 5927 0
-155 172 5927 0
155 156 5927 0
155 -172 5927 0
-171 5927 0
-155 156 171 -172 -5928 0
-155 -156 -171 -172 -5928 0
-156 171 5928 0
156 -171 5928 0
155 5928 0
172 5928 0
135 -136 139 140 -5929 0
-135 136 139 -140 -5929 0
-135 -136 5929 0
-135 140 5929 0
135 136 5929 0
135 -140 5929 0
-139 5929 0
-135 136 139 -140 -5930 0
-135 -136 -139 -140 -5930 0
-136 139 5930 0
136 -139 5930 0
135 5930 0
140 5930 0
155 -156 171 172 -5931 0
-155 156 171 -172 -5931 0
-155 -156 5931 0
-155 172 5931 0
155 156 5931 0
155 -172 5931 0
-171 5931 0
-155 156 171 -172 -5932 0
-155 -156 -171 -172 -5932 0
-156 171 5932 0
156 -171 5932 0
155 5932 0
172 5932 0
135 -136 139 140 -5933 0
-135 136 139 -140 -5933 0
-135 -136 5933 0
-135 140 5933 0
135 136 5933 0
135 -140 5933 0
-139 5933 0
-135 136 139 -140 -5934 0
-135 -136 -139 -140 -5934 0
-136 139 5934 0
136 -139 5934 0
135 5934 0
140 5934 0
155 -156 167 168 -5935 0
-155 156 167 -168 -5935 0
-155 -156 5935 0
-155 168 5935 0
155 156 5935 0
155 -168 5935 0
-167 5935 0
-155 156 167 -168 -5936 0
-155 -156 -167 -168 -5936 0
-156 167 5936 0
156 -167 5936 0
155 5936 0
168 5936 0
135 -136 139 140 -5937 0
-135 136 139 -140 -5937 0
-135 -136 5937 0
-135 140 5937 0
135 136 5937 0
135 -140 5937 0
-139 5937 0
-135 136 139 -140 -5938 0
-135 -136 -139 -140 -5938 0
-136 139 5938 0
136 -139 5938 0
135 5938 0
140 5938 0
155 -156 167 168 -5939 0
-155 156 167 -168 -5939 0
-155 -156 5939 0
-155 168 5939 0
155 156 5939 0
155 -168 5939 0
-167 5939 0
-155 156 167 -168 -5940 0
-155 -156 -167 -168 -5940 0
-156 167 5940 0
156 -167 5940 0
155 5940 0
168 5940 0
25 -26 59 60 -5941 0
-25 26 59 -60 -5941 0
-25 -26 5941 0
-25 60 5941 0
25 26 5941 0
25 -60 5941 0
-59 5941 0
-25 26 59 -60 -5942 0
-25 -26 -59 -60 -5942 0
-26 59 5942 0
26 -59 5942 0
25 5942 0
60 5942 0
67 -68 89 90 -5943 0
-67 68 89 -90 -5943 0
-67 -68 5943 0
-67 90 5943 0
67 68 5943 0
67 -90 5943 0
-89 5943 0
-67 68 89 -90 -5944 0
-67 -68 -89 -90 -5944 0
-68 89 5944 0
68 -89 5944 0
67 5944 0
90 5944 0
-5941 5942 5943 5944 -5945 0
5941 -5942 -5943 5944 -5945 0
-5941 -5942 5945 0
-5941 -5943 5945 0
5941 5942 5945 0
5941 5943 5945 0
-5944 5945 0
5941 -5942 -5943 5944 -5946 0
-5941 -5942 -5943 -5944 -5946 0
-5941 5944 5946 0
5941 -5944 5946 0
5942 5946 0
5943 5946 0
197 -198 201 202 -5947 0
-197 198 201 -202 -5947 0
-197 -198 5947 0
-197 202 5947 0
197 198 5947 0
197 -202 5947 0
-201 5947 0
-197 198 201 -202 -5948 0
-197 -198 -201 -202 -5948 0
-198 201 5948 0
198 -201 5948 0
197 5948 0
202 5948 0
203 -204 5947 5948 -5949 0
-203 204 -5947 5948 -5949 0
-203 -204 5949 0
-203 5947 5949 0
203 204 5949 0
203 -5947 5949 0
-5948 5949 0
-203 204 -5947 5948 -5950 0
-203 -204 -5947 -5948 -5950 0
-204 5948 5950 0
204 -5948 5950 0
203 5950 0
5947 5950 0
21 -22 59 60 -5951 0
-21 22 59 -60 -5951 0
-21 -22 5951 0
-21 60 5951 0
21 22 5951 0
21 -60 5951 0
-59 5951 0
-21 22 59 -60 -5952 0
-21 -22 -59 -60 -5952 0
-22 59 5952 0
22 -59 5952 0
21 5952 0
60 5952 0
67 -68 89 90 -5953 0
-67 68 89 -90 -5953 0
-67 -68 5953 0
-67 90 5953 0
67 68 5953 0
67 -90 5953 0
-89 5953 0
-67 68 89 -90 -5954 0
-67 -68 -89 -90 -5954 0
-68 89 5954 0
68 -89 5954 0
67 5954 0
90 5954 0
-5951 5952 5953 5954 -5955 0
5951 -5952 -5953 5954 -5955 0
-5951 -5952 5955 0
-5951 -5953 5955 0
5951 5952 5955 0
5951 5953 5955 0
-5954 5955 0
5951 -5952 -5953 5954 -5956 0
-5951 -5952 -5953 -5954 -5956 0
-5951 5954 5956 0
5951 -5954 5956 0
5952 5956 0
5953 5956 0
197 -198 201 202 -5957 0
-197 198 201 -202 -5957 0
-197 -198 5957 0
-197 202 5957 0
197 198 5957 0
197 -202 5957 0
-201 5957 0
-197 198 201 -202 -5958 0
-197 -198 -201 -202 -5958 0
-198 201 5958 0
198 -201 5958 0
197 5958 0
202 5958 0
203 -204 5957 5958 -5959 0
-203 204 -5957 5958 -5959 0
-203 -204 5959 0
-203 5957 5959 0
203 204 5959 0
203 -5957 5959 0
-5958 5959 0
-203 204 -5957 5958 -5960 0
-203 -204 -5957 -5958 -5960 0
-204 5958 5960 0
204 -5958 5960 0
203 5960 0
5957 5960 0
25 -26 41 42 -5961 0
-25 26 41 -42 -5961 0
-25 -26 5961 0
-25 42 5961 0
25 26 5961 0
25 -42 5961 0
-41 5961 0
-25 26 41 -42 -5962 0
-25 -26 -41 -42 -5962 0
-26 41 5962 0
26 -41 5962 0
25 5962 0
42 5962 0
59 -60 89 90 -5963 0
-59 60 89 -90 -5963 0
-59 -60 5963 0
-59 90 5963 0
59 60 5963 0
59 -90 5963 0
-89 5963 0
-59 60 89 -90 -5964 0
-59 -60 -89 -90 -5964 0
-60 89 5964 0
60 -89 5964 0
59 5964 0
90 5964 0
197 -198 201 202 -5965 0
-197 198 201 -202 -5965 0
-197 -198 5965 0
-197 202 5965 0
197 198 5965 0
197 -202 5965 0
-201 5965 0
-197 198 201 -202 -5966 0
-197 -198 -201 -202 -5966 0
-198 201 5966 0
198 -201 5966 0
197 5966 0
202 5966 0
21 -22 41 42 -5967 0
-21 22 41 -42 -5967 0
-21 -22 5967 0
-21 42 5967 0
21 22 5967 0
21 -42 5967 0
-41 5967 0
-21 22 41 -42 -5968 0
-21 -22 -41 -42 -5968 0
-22 41 5968 0
22 -41 5968 0
21 5968 0
42 5968 0
59 -60 89 90 -5969 0
-59 60 89 -90 -5969 0
-59 -60 5969 0
-59 90 5969 0
59 60 5969 0
59 -90 5969 0
-89 5969 0
-59 60 89 -90 -5970 0
-59 -60 -89 -90 -5970 0
-60 89 5970 0
60 -89 5970 0
59 5970 0
90 5970 0
197 -198 201 202 -5971 0
-197 198 201 -202 -5971 0
-197 -198 5971 0
-197 202 5971 0
197 198 5971 0
197 -202 5971 0
-201 5971 0
-197 198 201 -202 -5972 0
-197 -198 -201 -202 -5972 0
-198 201 5972 0
198 -201 5972 0
197 5972 0
202 5972 0
15 -16 67 68 -5973 0
-15 16 67 -68 -5973 0
-15 -16 5973 0
-15 68 5973 0
15 16 5973 0
15 -68 5973 0
-67 5973 0
-15 16 67 -68 -5974 0
-15 -16 -67 -68 -5974 0
-16 67 5974 0
16 -67 5974 0
15 5974 0
68 5974 0
15 -16 41 42 -5975 0
-15 16 41 -42 -5975 0
-15 -16 5975 0
-15 42 5975 0
15 16 5975 0
15 -42 5975 0
-41 5975 0
-15 16 41 -42 -5976 0
-15 -16 -41 -42 -5976 0
-16 41 5976 0
16 -41 5976 0
15 5976 0
42 5976 0
89 -90 5975 5976 -5977 0
-89 90 -5975 5976 -5977 0
-89 -90 5977 0
-89 5975 5977 0
89 90 5977 0
89 -5975 5977 0
-5976 5977 0
-89 90 -5975 5976 -5978 0
-89 -90 -5975 -5976 -5978 0
-90 5976 5978 0
90 -5976 5978 0
89 5978 0
5975 5978 0
197 -198 249 250 -5979 0
-197 198 249 -250 -5979 0
-197 -198 5979 0
-197 250 5979 0
197 198 5979 0
197 -250 5979 0
-249 5979 0
-197 198 249 -250 -5980 0
-197 -198 -249 -250 -5980 0
-198 249 5980 0
198 -249 5980 0
197 5980 0
250 5980 0
271 272 273 274 275 276 277 278 279 280 281 282 283 284 285 286 287 288 289 290 291 292 293 294 295 296 297 298 299 300 301 302 303 304 305 306 307 308 309 310 311 312 313 314 315 316 317 318 319 320 321 322 323 324 325 326 327 328 329 330 331 332 333 334 335 336 337 338 339 340 341 342 343 344 345 346 347 348 349 350 351 352 353 354 355 356 357 358 359 360 361 362 363 364 365 366 367 368 369 370 371 372 373 374 375 376 377 378 379 380 381 382 383 384 385 386 387 388 389 390 391 392 393 394 395 396 397 398 399 400 401 402 403 404 405 406 407 408 409 410 411 412 413 414 415 416 417 418 419 420 421 422 423 424 425 426 427 428 429 430 431 432 433 434 435 436 437 438 439 440 441 442 443 444 445 446 447 448 449 450 451 452 453 454 455 456 457 458 459 460 461 462 463 464 465 466 467 468 469 470 471 472 473 474 475 476 477 478 479 480 481 482 483 484 0
